Mo N  Mo N  Mo N  Mo Ni N  Mo N  Mo N  Mo N  Mo N  Mo N  Mo N  Mo N  Mo N  Mo N  Mo N  Mo N  Mo N 
 1.0000000000000000
     8.3200000000000003    0.0000000000000000    0.0000000000000000
     0.0000000000000000    8.3200000000000003    0.0000000000000000
     0.0000000000000000    0.0000000000000000   30.5600000000000023
 Mo  N   Mo  N   Mo  N   Mo  Ni  N   Mo  N   Mo  N   Mo  N   Mo  N   Mo  N   Mo  N   Mo  N   Mo  N   Mo  N   Mo  N   Mo  N   Mo  N  
   2   1   2   1   2   1   1   1   1   2   1   2   1   2   1   2   1   2   1   2   1   2   1   2   1   2   1   2   1   2   1   2   1
Selective dynamics
Cartesian
  0.0000000000000000  0.0000000000000000  8.0000000000000000   F   F   F
  2.0800000000000001  2.0800000000000001 10.0800000000000001   F   F   F
  2.0800000000000001  0.0000000000000000 10.0800000000000001   F   F   F
  0.0000000000000000  0.0000000000000000 12.1600000000000001   F   F   F
  2.0800000000000001  2.0800000000000001 14.2400000000000002   F   F   F
  2.0800000000000001  0.0000000000000000 14.2400000000000002   F   F   F
  0.0000000000000000  0.0000000000000000 16.3200000000000003   T   T   T
  2.0800000000000001  2.0800000000000001 18.3999999999999986   T   T   T
  2.0800000000000001  0.0000000000000000 18.3999999999999986   T   T   T
  0.0000000000000000  0.0000000000000000 20.4800000000000004   T   T   T
  2.0800000000000001  2.0800000000000001 22.5599999999999987   T   T   T
  2.0800000000000001  0.0000000000000000 22.5599999999999987   T   T   T
  0.0000000000000000  4.1600000000000001  8.0000000000000000   F   F   F
  2.0800000000000001  6.2400000000000002 10.0800000000000001   F   F   F
  2.0800000000000001  4.1600000000000001 10.0800000000000001   F   F   F
  0.0000000000000000  4.1600000000000001 12.1600000000000001   F   F   F
  2.0800000000000001  6.2400000000000002 14.2400000000000002   F   F   F
  2.0800000000000001  4.1600000000000001 14.2400000000000002   F   F   F
  0.0000000000000000  4.1600000000000001 16.3200000000000003   T   T   T
  2.0800000000000001  6.2400000000000002 18.3999999999999986   T   T   T
  2.0800000000000001  4.1600000000000001 18.3999999999999986   T   T   T
  0.0000000000000000  4.1600000000000001 20.4800000000000004   T   T   T
  2.0800000000000001  6.2400000000000002 22.5599999999999987   T   T   T
  2.0800000000000001  4.1600000000000001 22.5599999999999987   T   T   T
  4.1600000000000001  0.0000000000000000  8.0000000000000000   F   F   F
  6.2400000000000002  2.0800000000000001 10.0800000000000001   F   F   F
  6.2400000000000002  0.0000000000000000 10.0800000000000001   F   F   F
  4.1600000000000001  0.0000000000000000 12.1600000000000001   F   F   F
  6.2400000000000002  2.0800000000000001 14.2400000000000002   F   F   F
  6.2400000000000002  0.0000000000000000 14.2400000000000002   F   F   F
  4.1600000000000001  0.0000000000000000 16.3200000000000003   T   T   T
  6.2400000000000002  2.0800000000000001 18.3999999999999986   T   T   T
  6.2400000000000002  0.0000000000000000 18.3999999999999986   T   T   T
  4.1600000000000001  0.0000000000000000 20.4800000000000004   T   T   T
  6.2400000000000002  2.0800000000000001 22.5599999999999987   T   T   T
  6.2400000000000002  0.0000000000000000 22.5599999999999987   T   T   T
  4.1600000000000001  4.1600000000000001  8.0000000000000000   F   F   F
  6.2400000000000002  6.2400000000000002 10.0800000000000001   F   F   F
  6.2400000000000002  4.1600000000000001 10.0800000000000001   F   F   F
  4.1600000000000001  4.1600000000000001 12.1600000000000001   F   F   F
  6.2400000000000002  6.2400000000000002 14.2400000000000002   F   F   F
  6.2400000000000002  4.1600000000000001 14.2400000000000002   F   F   F
  4.1600000000000001  4.1600000000000001 16.3200000000000003   T   T   T
  6.2400000000000002  6.2400000000000002 18.3999999999999986   T   T   T
  6.2400000000000002  4.1600000000000001 18.3999999999999986   T   T   T
  4.1600000000000001  4.1600000000000001 20.4800000000000004   T   T   T
  6.2400000000000002  6.2400000000000002 22.5599999999999987   T   T   T
  6.2400000000000002  4.1600000000000001 22.5599999999999987   T   T   T
