Ni O  Ti C  Ti C  Ti O  Ti C  Ti C  Ti O  Ti C  Ti C  Ti O  Ti C  Ti C  Ti O  Ti C  Ti C  Ti O  Ti C  Ti C  Ti O  Ti C  Ti C  Ti O  Ti C  Ti C  Ti O  Ti C  Ti C  Ti O  Ag
 1.0000000000000000
     7.4670476093299420    0.0000000000000000    0.0000000000000000
     3.7335238046649710    6.4666529209475900    0.0000000000000000
     0.0000000000000000    0.0000000000000000   30.2968188426424483
 Ni  O   Ti  C   Ti  C   Ti  O   Ti  C   Ti  C   Ti  O   Ti  C   Ti  C   Ti  O   Ti  C   Ti  C   Ti  O   Ti  C   Ti  C   Ti  O   Ti  C   Ti  C   Ti  O   Ti  C   Ti  C   Ti  O   Ti  C   Ti  C   Ti  O   Ti  C   Ti  C   Ti  O   Ag 
  36   1   1   1   1   1   1   2   1   1   1   1   1   2   1   1   1   1   1   2   1   1   1   1   1   2   1   1   1   1   1   2   1   1   1   1   1   2   1   1   1   1   1   2   1   1   1   1   1   2   1   1   1   1   1   1   2
Selective dynamics
Cartesian
  0.0000000000000000  0.0000000000000000  8.0000000000000000   F   F   F
  2.4890158697766473  0.0000000000000000  8.0000000000000000   F   F   F
  4.9780317395532947  0.0000000000000000  8.0000000000000000   F   F   F
  1.2445079348883237  2.1555509736491967  8.0000000000000000   F   F   F
  3.7335238046649710  2.1555509736491967  8.0000000000000000   F   F   F
  6.2225396744416184  2.1555509736491967  8.0000000000000000   F   F   F
  2.4890158697766473  4.3111019472983934  8.0000000000000000   F   F   F
  4.9780317395532947  4.3111019472983934  8.0000000000000000   F   F   F
  7.4670476093299420  4.3111019472983934  8.0000000000000000   F   F   F
  1.2445079348883237  0.7185169912163989 10.0322729475474830   F   F   F
  3.7335238046649706  0.7185169912163989 10.0322729475474830   F   F   F
  6.2225396744416193  0.7185169912163989 10.0322729475474830   F   F   F
  2.4890158697766473  2.8740679648655956 10.0322729475474830   F   F   F
  4.9780317395532947  2.8740679648655956 10.0322729475474830   F   F   F
  7.4670476093299429  2.8740679648655956 10.0322729475474830   F   F   F
  3.7335238046649710  5.0296189385147922 10.0322729475474830   F   F   F
  6.2225396744416184  5.0296189385147922 10.0322729475474830   F   F   F
  8.7115555442182657  5.0296189385147922 10.0322729475474830   F   F   F
  0.0000000000000000  1.4370339824327978 12.0645458950949660   T   T   T
  2.4890158697766473  1.4370339824327978 12.0645458950949660   T   T   T
  4.9780317395532947  1.4370339824327978 12.0645458950949660   T   T   T
  1.2445079348883237  3.5925849560819940 12.0645458950949660   T   T   T
  3.7335238046649710  3.5925849560819940 12.0645458950949660   T   T   T
  6.2225396744416184  3.5925849560819940 12.0645458950949660   T   T   T
  2.4890158697766473  5.7481359297311911 12.0645458950949660   T   T   T
  4.9780317395532947  5.7481359297311911 12.0645458950949660   T   T   T
  7.4670476093299420  5.7481359297311911 12.0645458950949660   T   T   T
  0.0000000000000000  0.0000000000000000 14.0968188426424490   T   T   T
  2.4890158697766473  0.0000000000000000 14.0968188426424490   T   T   T
  4.9780317395532947  0.0000000000000000 14.0968188426424490   T   T   T
  1.2445079348883237  2.1555509736491967 14.0968188426424490   T   T   T
  3.7335238046649710  2.1555509736491967 14.0968188426424490   T   T   T
  6.2225396744416184  2.1555509736491967 14.0968188426424490   T   T   T
  2.4890158697766473  4.3111019472983934 14.0968188426424490   T   T   T
  4.9780317395532947  4.3111019472983934 14.0968188426424490   T   T   T
  7.4670476093299420  4.3111019472983934 14.0968188426424490   T   T   T
  0.0000000000000001  1.7730426766813407 16.2968188426424483   T   T   T
  1.5355000000000001  0.8865213383406704 17.2968188426424483   T   T   T
  0.0000000000000000  0.0000000000000000 18.2968188426424483   T   T   T
  0.0000000000000001  1.7730426766813407 19.2968188426424483   T   T   T
  1.5355000000000001  0.8865213383406704 20.2968188426424483   T   T   T
  0.0000000000000000  0.0000000000000000 21.2968188426424483   T   T   T
  0.0000000000000001  1.7730426766813407 22.2968188426424483   T   T   T
 -1.5355000000000001  4.4326066917033522 16.2968188426424483   T   T   T
  0.0000000000000000  3.5460853533626815 17.2968188426424483   T   T   T
 -1.5355000000000001  2.6595640150220112 18.2968188426424483   T   T   T
 -1.5355000000000001  4.4326066917033522 19.2968188426424483   T   T   T
  0.0000000000000000  3.5460853533626815 20.2968188426424483   T   T   T
 -1.5355000000000001  2.6595640150220112 21.2968188426424483   T   T   T
 -1.5355000000000001  4.4326066917033522 22.2968188426424483   T   T   T
 -3.0710000000000002  7.0921707067253630 16.2968188426424483   T   T   T
 -1.5355000000000001  6.2056493683846927 17.2968188426424483   T   T   T
 -3.0710000000000002  5.3191280300440225 18.2968188426424483   T   T   T
 -3.0710000000000002  7.0921707067253630 19.2968188426424483   T   T   T
 -1.5355000000000001  6.2056493683846927 20.2968188426424483   T   T   T
 -3.0710000000000002  5.3191280300440225 21.2968188426424483   T   T   T
 -3.0710000000000002  7.0921707067253630 22.2968188426424483   T   T   T
  3.0710000000000002  1.7730426766813407 16.2968188426424483   T   T   T
  4.6065000000000005  0.8865213383406704 17.2968188426424483   T   T   T
  3.0710000000000002  0.0000000000000000 18.2968188426424483   T   T   T
  3.0710000000000002  1.7730426766813407 19.2968188426424483   T   T   T
  4.6065000000000005  0.8865213383406704 20.2968188426424483   T   T   T
  3.0710000000000002  0.0000000000000000 21.2968188426424483   T   T   T
  3.0710000000000002  1.7730426766813407 22.2968188426424483   T   T   T
  1.5355000000000001  4.4326066917033522 16.2968188426424483   T   T   T
  3.0710000000000002  3.5460853533626815 17.2968188426424483   T   T   T
  1.5355000000000001  2.6595640150220112 18.2968188426424483   T   T   T
  1.5355000000000001  4.4326066917033522 19.2968188426424483   T   T   T
  3.0710000000000002  3.5460853533626815 20.2968188426424483   T   T   T
  1.5355000000000001  2.6595640150220112 21.2968188426424483   T   T   T
  1.5355000000000001  4.4326066917033522 22.2968188426424483   T   T   T
  0.0000000000000001  7.0921707067253630 16.2968188426424483   T   T   T
  1.5355000000000001  6.2056493683846927 17.2968188426424483   T   T   T
  0.0000000000000000  5.3191280300440225 18.2968188426424483   T   T   T
  0.0000000000000001  7.0921707067253630 19.2968188426424483   T   T   T
  1.5355000000000001  6.2056493683846927 20.2968188426424483   T   T   T
  0.0000000000000000  5.3191280300440225 21.2968188426424483   T   T   T
  0.0000000000000001  7.0921707067253630 22.2968188426424483   T   T   T
  6.1420000000000003  1.7730426766813407 16.2968188426424483   T   T   T
  7.6775000000000002  0.8865213383406704 17.2968188426424483   T   T   T
  6.1420000000000003  0.0000000000000000 18.2968188426424483   T   T   T
  6.1420000000000003  1.7730426766813407 19.2968188426424483   T   T   T
  7.6775000000000002  0.8865213383406704 20.2968188426424483   T   T   T
  6.1420000000000003  0.0000000000000000 21.2968188426424483   T   T   T
  6.1420000000000003  1.7730426766813407 22.2968188426424483   T   T   T
  4.6065000000000005  4.4326066917033522 16.2968188426424483   T   T   T
  6.1420000000000003  3.5460853533626815 17.2968188426424483   T   T   T
  4.6065000000000005  2.6595640150220112 18.2968188426424483   T   T   T
  4.6065000000000005  4.4326066917033522 19.2968188426424483   T   T   T
  6.1420000000000003  3.5460853533626815 20.2968188426424483   T   T   T
  4.6065000000000005  2.6595640150220112 21.2968188426424483   T   T   T
  4.6065000000000005  4.4326066917033522 22.2968188426424483   T   T   T
  3.0710000000000002  7.0921707067253630 16.2968188426424483   T   T   T
  4.6065000000000005  6.2056493683846927 17.2968188426424483   T   T   T
  3.0710000000000002  5.3191280300440225 18.2968188426424483   T   T   T
  3.0710000000000002  7.0921707067253630 19.2968188426424483   T   T   T
  4.6065000000000005  6.2056493683846927 20.2968188426424483   T   T   T
  3.0710000000000002  5.3191280300440225 21.2968188426424483   T   T   T
  3.0710000000000002  7.0921707067253630 22.2968188426424483   T   T   T
  1.5271002866862020  3.3169885163750377 24.0968188426424490   T   T   T
  3.9271002866862021  3.3169885163750377 24.0968188426424490   T   T   T
