Mo S  Mo S  Mo S  Mo S  Mo S  Mo S  Mo S  Mo S  Mo S  Mo S  Mo S  Mo S 
 1.0000000000000000
    36.3818752807346897    0.0000000000000000    0.0000000000000000
    -3.1600000000000001    5.4732805519176519    0.0000000000000000
     0.0000000000000000    0.0000000000000000   18.9507999999999974
 Mo  S   Mo  S   Mo  S   Mo  S   Mo  S   Mo  S   Mo  S   Mo  S   Mo  S   Mo  S   Mo  S   Mo  S  
   1   2   1   1   1   2   1   2   1   2   1   2   1   2   1   2   1   2   1   2   1   1   1   2
Selective dynamics
Cartesian
  9.2376043070340117  0.0000000000000000  9.4754000000000005   T   T   T
  9.2376043070340117  1.8244268506392172 10.9508000000000010   T   T   T
 10.8176043070340118  0.9122134253196086  8.0000000000000000   F   F   F
  7.6576043070340116  2.7366402759588260  9.4754000000000005   T   T   T
  9.2376043070340117  3.6488537012784343  8.0000000000000000   F   F   F
 12.3976043070340118  0.0000000000000000  9.4754000000000005   T   T   T
 12.3976043070340118  1.8244268506392172 10.9508000000000010   T   T   T
 13.9776043070340119  0.9122134253196086  8.0000000000000000   F   F   F
 10.8176043070340118  2.7366402759588260  9.4754000000000005   T   T   T
 10.8176043070340118  4.5610671265980436 10.9508000000000010   T   T   T
 12.3976043070340118  3.6488537012784343  8.0000000000000000   F   F   F
 15.5576043070340120  0.0000000000000000  9.4754000000000005   T   T   T
 15.5576043070340120  1.8244268506392172 10.9508000000000010   T   T   T
 17.1376043070340103  0.9122134253196086  8.0000000000000000   F   F   F
 13.9776043070340119  2.7366402759588260  9.4754000000000005   T   T   T
 13.9776043070340119  4.5610671265980436 10.9508000000000010   T   T   T
 15.5576043070340120  3.6488537012784343  8.0000000000000000   F   F   F
 18.7176043070340121  0.0000000000000000  9.4754000000000005   T   T   T
 18.7176043070340121  1.8244268506392172 10.9508000000000010   T   T   T
 20.2976043070340140  0.9122134253196086  8.0000000000000000   F   F   F
 17.1376043070340103  2.7366402759588260  9.4754000000000005   T   T   T
 17.1376043070340103  4.5610671265980436 10.9508000000000010   T   T   T
 18.7176043070340121  3.6488537012784343  8.0000000000000000   F   F   F
 21.8776043070340123  0.0000000000000000  9.4754000000000005   T   T   T
 21.8776043070340123  1.8244268506392172 10.9508000000000010   T   T   T
 23.4576043070340106  0.9122134253196086  8.0000000000000000   F   F   F
 20.2976043070340140  2.7366402759588260  9.4754000000000005   T   T   T
 20.2976043070340140  4.5610671265980436 10.9508000000000010   T   T   T
 21.8776043070340123  3.6488537012784343  8.0000000000000000   F   F   F
 25.0376043070340124  0.0000000000000000  9.4754000000000005   T   T   T
 25.0376043070340124  1.8244268506392172 10.9508000000000010   T   T   T
 23.4576043070340106  2.7366402759588260  9.4754000000000005   T   T   T
 23.4576043070340106  4.5610671265980436 10.9508000000000010   T   T   T
 25.0376043070340124  3.6488537012784343  8.0000000000000000   F   F   F
