Mo S  Mo S  Mo S  Mo S  Mo S  Mo S  Mo S  Mo S  Mo S  Mo S  Mo S  Mo S  Mo S  Mo S  Mo S  Mo S  Mo S  Mo S  Mo S  Mo S  Mo S  Mo S  Mo S  Mo S  Mo S  Mo S  Mo S  Mo S  Mo S  Mo S 
 1.0000000000000000
    49.0218752807346831    0.0000000000000000    0.0000000000000000
    -4.7400000000000002    8.2099208278764770    0.0000000000000000
     0.0000000000000000    0.0000000000000000   18.9507999999999974
 Mo  S   Mo  S   Mo  S   Mo  S   Mo  S   Mo  S   Mo  S   Mo  S   Mo  S   Mo  S   Mo  S   Mo  S   Mo  S   Mo  S   Mo  S   Mo  S   Mo  S   Mo  S   Mo  S   Mo  S   Mo  S   Mo  S   Mo  S   Mo  S   Mo  S   Mo  S   Mo  S   Mo  S   Mo  S   Mo  S  
   1   2   1   2   1   1   1   2   1   2   1   2   1   2   1   2   1   2   1   2   1   2   1   2   1   2   1   2   1   2   1   2   1   2   1   2   1   2   1   2   1   2   1   2   1   2   1   2   1   2   1   2   1   2   1   1   1   2   1   2
Selective dynamics
Cartesian
  9.2376043070340099  0.0000000000000000  9.4754000000000005   T   T   T
  9.2376043070340099  1.8244268506392172 10.9508000000000010   T   T   T
 10.8176043070340100  0.9122134253196086  8.0000000000000000   F   F   F
  7.6576043070340098  2.7366402759588260  9.4754000000000005   T   T   T
  7.6576043070340098  4.5610671265980436 10.9508000000000010   T   T   T
  9.2376043070340099  3.6488537012784343  8.0000000000000000   F   F   F
  6.0776043070340098  5.4732805519176519  9.4754000000000005   T   T   T
  7.6576043070340098  6.3854939772372603  8.0000000000000000   F   F   F
 12.3976043070340101  0.0000000000000000  9.4754000000000005   T   T   T
 12.3976043070340101  1.8244268506392172 10.9508000000000010   T   T   T
 13.9776043070340101  0.9122134253196086  8.0000000000000000   F   F   F
 10.8176043070340100  2.7366402759588260  9.4754000000000005   T   T   T
 10.8176043070340100  4.5610671265980436 10.9508000000000010   T   T   T
 12.3976043070340101  3.6488537012784343  8.0000000000000000   F   F   F
  9.2376043070340099  5.4732805519176519  9.4754000000000005   T   T   T
  9.2376043070340099  7.2977074025568687 10.9508000000000010   T   T   T
 10.8176043070340100  6.3854939772372603  8.0000000000000000   F   F   F
 15.5576043070340102  0.0000000000000000  9.4754000000000005   T   T   T
 15.5576043070340102  1.8244268506392172 10.9508000000000010   T   T   T
 17.1376043070340103  0.9122134253196086  8.0000000000000000   F   F   F
 13.9776043070340101  2.7366402759588260  9.4754000000000005   T   T   T
 13.9776043070340101  4.5610671265980436 10.9508000000000010   T   T   T
 15.5576043070340102  3.6488537012784343  8.0000000000000000   F   F   F
 12.3976043070340101  5.4732805519176519  9.4754000000000005   T   T   T
 12.3976043070340101  7.2977074025568687 10.9508000000000010   T   T   T
 13.9776043070340101  6.3854939772372603  8.0000000000000000   F   F   F
 18.7176043070340086  0.0000000000000000  9.4754000000000005   T   T   T
 18.7176043070340086  1.8244268506392172 10.9508000000000010   T   T   T
 20.2976043070340104  0.9122134253196086  8.0000000000000000   F   F   F
 17.1376043070340103  2.7366402759588260  9.4754000000000005   T   T   T
 17.1376043070340103  4.5610671265980436 10.9508000000000010   T   T   T
 18.7176043070340086  3.6488537012784343  8.0000000000000000   F   F   F
 15.5576043070340102  5.4732805519176519  9.4754000000000005   T   T   T
 15.5576043070340102  7.2977074025568687 10.9508000000000010   T   T   T
 17.1376043070340103  6.3854939772372603  8.0000000000000000   F   F   F
 21.8776043070340123  0.0000000000000000  9.4754000000000005   T   T   T
 21.8776043070340123  1.8244268506392172 10.9508000000000010   T   T   T
 23.4576043070340106  0.9122134253196086  8.0000000000000000   F   F   F
 20.2976043070340104  2.7366402759588260  9.4754000000000005   T   T   T
 20.2976043070340104  4.5610671265980436 10.9508000000000010   T   T   T
 21.8776043070340123  3.6488537012784343  8.0000000000000000   F   F   F
 18.7176043070340086  5.4732805519176519  9.4754000000000005   T   T   T
 18.7176043070340086  7.2977074025568687 10.9508000000000010   T   T   T
 20.2976043070340104  6.3854939772372603  8.0000000000000000   F   F   F
 25.0376043070340089  0.0000000000000000  9.4754000000000005   T   T   T
 25.0376043070340089  1.8244268506392172 10.9508000000000010   T   T   T
 26.6176043070340071  0.9122134253196086  8.0000000000000000   F   F   F
 23.4576043070340106  2.7366402759588260  9.4754000000000005   T   T   T
 23.4576043070340106  4.5610671265980436 10.9508000000000010   T   T   T
 25.0376043070340089  3.6488537012784343  8.0000000000000000   F   F   F
 21.8776043070340123  5.4732805519176519  9.4754000000000005   T   T   T
 21.8776043070340123  7.2977074025568687 10.9508000000000010   T   T   T
 23.4576043070340106  6.3854939772372603  8.0000000000000000   F   F   F
 28.1976043070340125  0.0000000000000000  9.4754000000000005   T   T   T
 28.1976043070340125  1.8244268506392172 10.9508000000000010   T   T   T
 29.7776043070340108  0.9122134253196086  8.0000000000000000   F   F   F
 26.6176043070340143  2.7366402759588260  9.4754000000000005   T   T   T
 26.6176043070340143  4.5610671265980436 10.9508000000000010   T   T   T
 28.1976043070340125  3.6488537012784343  8.0000000000000000   F   F   F
 25.0376043070340089  5.4732805519176519  9.4754000000000005   T   T   T
 25.0376043070340089  7.2977074025568687 10.9508000000000010   T   T   T
 26.6176043070340071  6.3854939772372603  8.0000000000000000   F   F   F
 31.3576043070340091  0.0000000000000000  9.4754000000000005   T   T   T
 31.3576043070340091  1.8244268506392172 10.9508000000000010   T   T   T
 32.9376043070340074  0.9122134253196086  8.0000000000000000   F   F   F
 29.7776043070340108  2.7366402759588260  9.4754000000000005   T   T   T
 29.7776043070340108  4.5610671265980436 10.9508000000000010   T   T   T
 31.3576043070340091  3.6488537012784343  8.0000000000000000   F   F   F
 28.1976043070340125  5.4732805519176519  9.4754000000000005   T   T   T
 28.1976043070340125  7.2977074025568687 10.9508000000000010   T   T   T
 29.7776043070340108  6.3854939772372603  8.0000000000000000   F   F   F
 34.5176043070340128  0.0000000000000000  9.4754000000000005   T   T   T
 34.5176043070340128  1.8244268506392172 10.9508000000000010   T   T   T
 36.0976043070340111  0.9122134253196086  8.0000000000000000   F   F   F
 32.9376043070340145  2.7366402759588260  9.4754000000000005   T   T   T
 32.9376043070340145  4.5610671265980436 10.9508000000000010   T   T   T
 34.5176043070340128  3.6488537012784343  8.0000000000000000   F   F   F
 31.3576043070340091  5.4732805519176519  9.4754000000000005   T   T   T
 31.3576043070340091  7.2977074025568687 10.9508000000000010   T   T   T
 32.9376043070340074  6.3854939772372603  8.0000000000000000   F   F   F
 37.6776043070340094  0.0000000000000000  9.4754000000000005   T   T   T
 37.6776043070340094  1.8244268506392172 10.9508000000000010   T   T   T
 36.0976043070340111  2.7366402759588260  9.4754000000000005   T   T   T
 36.0976043070340111  4.5610671265980436 10.9508000000000010   T   T   T
 37.6776043070340094  3.6488537012784343  8.0000000000000000   F   F   F
 34.5176043070340128  5.4732805519176519  9.4754000000000005   T   T   T
 34.5176043070340128  7.2977074025568687 10.9508000000000010   T   T   T
 36.0976043070340111  6.3854939772372603  8.0000000000000000   F   F   F
