Ni Mo B  Mo B  Mo B  Mo B  Mo B  Mo B  Mo B  Mo B  Ag
 1.0000000000000000
     7.4670476093299420    0.0000000000000000    0.0000000000000000
     0.0000000000000000    7.4670476093299420    0.0000000000000000
     0.0000000000000000    0.0000000000000000   28.1449999999999996
 Ni  Mo  B   Mo  B   Mo  B   Mo  B   Mo  B   Mo  B   Mo  B   Mo  B   Ag 
  36   8   8   8   8   8   8   8   8   8   8   8   8   8   8   8   8   4
Selective dynamics
Cartesian
  1.2445079348883237  1.2445079348883237  8.0000000000000000   F   F   F
  3.7335238046649710  1.2445079348883237  8.0000000000000000   F   F   F
  6.2225396744416184  1.2445079348883237  8.0000000000000000   F   F   F
  1.2445079348883237  3.7335238046649710  8.0000000000000000   F   F   F
  3.7335238046649710  3.7335238046649710  8.0000000000000000   F   F   F
  6.2225396744416184  3.7335238046649710  8.0000000000000000   F   F   F
  1.2445079348883237  6.2225396744416184  8.0000000000000000   F   F   F
  3.7335238046649710  6.2225396744416184  8.0000000000000000   F   F   F
  6.2225396744416184  6.2225396744416184  8.0000000000000000   F   F   F
  0.0000000000000000  0.0000000000000000  9.7599999999999998   F   F   F
  2.4890158697766473  0.0000000000000000  9.7599999999999998   F   F   F
  4.9780317395532947  0.0000000000000000  9.7599999999999998   F   F   F
  0.0000000000000000  2.4890158697766473  9.7599999999999998   F   F   F
  2.4890158697766473  2.4890158697766473  9.7599999999999998   F   F   F
  4.9780317395532947  2.4890158697766473  9.7599999999999998   F   F   F
  0.0000000000000000  4.9780317395532947  9.7599999999999998   F   F   F
  2.4890158697766473  4.9780317395532947  9.7599999999999998   F   F   F
  4.9780317395532947  4.9780317395532947  9.7599999999999998   F   F   F
  1.2445079348883237  1.2445079348883237 11.5199999999999996   T   T   T
  3.7335238046649710  1.2445079348883237 11.5199999999999996   T   T   T
  6.2225396744416184  1.2445079348883237 11.5199999999999996   T   T   T
  1.2445079348883237  3.7335238046649710 11.5199999999999996   T   T   T
  3.7335238046649710  3.7335238046649710 11.5199999999999996   T   T   T
  6.2225396744416184  3.7335238046649710 11.5199999999999996   T   T   T
  1.2445079348883237  6.2225396744416184 11.5199999999999996   T   T   T
  3.7335238046649710  6.2225396744416184 11.5199999999999996   T   T   T
  6.2225396744416184  6.2225396744416184 11.5199999999999996   T   T   T
  0.0000000000000000  0.0000000000000000 13.2800000000000011   T   T   T
  2.4890158697766473  0.0000000000000000 13.2800000000000011   T   T   T
  4.9780317395532947  0.0000000000000000 13.2800000000000011   T   T   T
  0.0000000000000000  2.4890158697766473 13.2800000000000011   T   T   T
  2.4890158697766473  2.4890158697766473 13.2800000000000011   T   T   T
  4.9780317395532947  2.4890158697766473 13.2800000000000011   T   T   T
  0.0000000000000000  4.9780317395532947 13.2800000000000011   T   T   T
  2.4890158697766473  4.9780317395532947 13.2800000000000011   T   T   T
  4.9780317395532947  4.9780317395532947 13.2800000000000011   T   T   T
  0.0000000000000000  3.3391499999999996 15.4800000000000004   T   T   T
  1.5549999999999999  7.5766499999999981 17.0350000000000001   T   T   T
  1.5549999999999999 11.8141499999999926 15.4800000000000004   T   T   T
  0.0000000000000000 16.0516499999999951 17.0350000000000001   T   T   T
  0.0000000000000000 13.6108499999999957 15.4800000000000004   T   T   T
  1.5549999999999999  9.3733499999999985 17.0350000000000001   T   T   T
  1.5549999999999999  5.1358499999999987 15.4800000000000004   T   T   T
  0.0000000000000000  0.8983499999999996 17.0350000000000001   T   T   T
  0.0000000000000000  5.8985999999999974 15.4800000000000004   T   T   T
  1.5549999999999999 10.1360999999999972 17.0350000000000001   T   T   T
  1.5549999999999999 14.3735999999999944 15.4800000000000004   T   T   T
  0.0000000000000000  1.6610999999999998 17.0350000000000001   T   T   T
  0.0000000000000000 11.0513999999999939 15.4800000000000004   T   T   T
  1.5549999999999999  6.8138999999999994 17.0350000000000001   T   T   T
  1.5549999999999999  2.5763999999999996 15.4800000000000004   T   T   T
  0.0000000000000000 15.2888999999999964 17.0350000000000001   T   T   T
  0.0000000000000000  3.3391499999999996 18.5899999999999999   T   T   T
  1.5549999999999999  7.5766499999999981 20.1449999999999996   T   T   T
  1.5549999999999999 11.8141499999999926 18.5899999999999999   T   T   T
  0.0000000000000000 16.0516499999999951 20.1449999999999996   T   T   T
  0.0000000000000000 13.6108499999999957 18.5899999999999999   T   T   T
  1.5549999999999999  9.3733499999999985 20.1449999999999996   T   T   T
  1.5549999999999999  5.1358499999999987 18.5899999999999999   T   T   T
  0.0000000000000000  0.8983499999999996 20.1449999999999996   T   T   T
  0.0000000000000000  5.8985999999999974 18.5899999999999999   T   T   T
  1.5549999999999999 10.1360999999999972 20.1449999999999996   T   T   T
  1.5549999999999999 14.3735999999999944 18.5899999999999999   T   T   T
  0.0000000000000000  1.6610999999999998 20.1449999999999996   T   T   T
  0.0000000000000000 11.0513999999999939 18.5899999999999999   T   T   T
  1.5549999999999999  6.8138999999999994 20.1449999999999996   T   T   T
  1.5549999999999999  2.5763999999999996 18.5899999999999999   T   T   T
  0.0000000000000000 15.2888999999999964 20.1449999999999996   T   T   T
  0.0000000000000000 20.2891499999999994 15.4800000000000004   T   T   T
  1.5549999999999999 24.5266499999999965 17.0350000000000001   T   T   T
  1.5549999999999999 28.7641499999999937 15.4800000000000004   T   T   T
  0.0000000000000000 33.0016499999999979 17.0350000000000001   T   T   T
  0.0000000000000000 30.5608499999999950 15.4800000000000004   T   T   T
  1.5549999999999999 26.3233499999999978 17.0350000000000001   T   T   T
  1.5549999999999999 22.0858499999999971 15.4800000000000004   T   T   T
  0.0000000000000000 17.8483499999999999 17.0350000000000001   T   T   T
  0.0000000000000000 22.8485999999999976 15.4800000000000004   T   T   T
  1.5549999999999999 27.0860999999999947 17.0350000000000001   T   T   T
  1.5549999999999999 31.3235999999999919 15.4800000000000004   T   T   T
  0.0000000000000000 18.6111000000000004 17.0350000000000001   T   T   T
  0.0000000000000000 28.0013999999999932 15.4800000000000004   T   T   T
  1.5549999999999999 23.7638999999999996 17.0350000000000001   T   T   T
  1.5549999999999999 19.5263999999999989 15.4800000000000004   T   T   T
  0.0000000000000000 32.2388999999999939 17.0350000000000001   T   T   T
  0.0000000000000000 20.2891499999999994 18.5899999999999999   T   T   T
  1.5549999999999999 24.5266499999999965 20.1449999999999996   T   T   T
  1.5549999999999999 28.7641499999999937 18.5899999999999999   T   T   T
  0.0000000000000000 33.0016499999999979 20.1449999999999996   T   T   T
  0.0000000000000000 30.5608499999999950 18.5899999999999999   T   T   T
  1.5549999999999999 26.3233499999999978 20.1449999999999996   T   T   T
  1.5549999999999999 22.0858499999999971 18.5899999999999999   T   T   T
  0.0000000000000000 17.8483499999999999 20.1449999999999996   T   T   T
  0.0000000000000000 22.8485999999999976 18.5899999999999999   T   T   T
  1.5549999999999999 27.0860999999999947 20.1449999999999996   T   T   T
  1.5549999999999999 31.3235999999999919 18.5899999999999999   T   T   T
  0.0000000000000000 18.6111000000000004 20.1449999999999996   T   T   T
  0.0000000000000000 28.0013999999999932 18.5899999999999999   T   T   T
  1.5549999999999999 23.7638999999999996 20.1449999999999996   T   T   T
  1.5549999999999999 19.5263999999999989 18.5899999999999999   T   T   T
  0.0000000000000000 32.2388999999999939 20.1449999999999996   T   T   T
  3.1099999999999999  3.3391499999999996 15.4800000000000004   T   T   T
  4.6650000000000000  7.5766499999999981 17.0350000000000001   T   T   T
  4.6650000000000000 11.8141499999999926 15.4800000000000004   T   T   T
  3.1099999999999999 16.0516499999999951 17.0350000000000001   T   T   T
  3.1099999999999999 13.6108499999999957 15.4800000000000004   T   T   T
  4.6650000000000000  9.3733499999999985 17.0350000000000001   T   T   T
  4.6650000000000000  5.1358499999999987 15.4800000000000004   T   T   T
  3.1099999999999999  0.8983499999999996 17.0350000000000001   T   T   T
  3.1099999999999999  5.8985999999999974 15.4800000000000004   T   T   T
  4.6650000000000000 10.1360999999999972 17.0350000000000001   T   T   T
  4.6650000000000000 14.3735999999999944 15.4800000000000004   T   T   T
  3.1099999999999999  1.6610999999999998 17.0350000000000001   T   T   T
  3.1099999999999999 11.0513999999999939 15.4800000000000004   T   T   T
  4.6650000000000000  6.8138999999999994 17.0350000000000001   T   T   T
  4.6650000000000000  2.5763999999999996 15.4800000000000004   T   T   T
  3.1099999999999999 15.2888999999999964 17.0350000000000001   T   T   T
  3.1099999999999999  3.3391499999999996 18.5899999999999999   T   T   T
  4.6650000000000000  7.5766499999999981 20.1449999999999996   T   T   T
  4.6650000000000000 11.8141499999999926 18.5899999999999999   T   T   T
  3.1099999999999999 16.0516499999999951 20.1449999999999996   T   T   T
  3.1099999999999999 13.6108499999999957 18.5899999999999999   T   T   T
  4.6650000000000000  9.3733499999999985 20.1449999999999996   T   T   T
  4.6650000000000000  5.1358499999999987 18.5899999999999999   T   T   T
  3.1099999999999999  0.8983499999999996 20.1449999999999996   T   T   T
  3.1099999999999999  5.8985999999999974 18.5899999999999999   T   T   T
  4.6650000000000000 10.1360999999999972 20.1449999999999996   T   T   T
  4.6650000000000000 14.3735999999999944 18.5899999999999999   T   T   T
  3.1099999999999999  1.6610999999999998 20.1449999999999996   T   T   T
  3.1099999999999999 11.0513999999999939 18.5899999999999999   T   T   T
  4.6650000000000000  6.8138999999999994 20.1449999999999996   T   T   T
  4.6650000000000000  2.5763999999999996 18.5899999999999999   T   T   T
  3.1099999999999999 15.2888999999999964 20.1449999999999996   T   T   T
  3.1099999999999999 20.2891499999999994 15.4800000000000004   T   T   T
  4.6650000000000000 24.5266499999999965 17.0350000000000001   T   T   T
  4.6650000000000000 28.7641499999999937 15.4800000000000004   T   T   T
  3.1099999999999999 33.0016499999999979 17.0350000000000001   T   T   T
  3.1099999999999999 30.5608499999999950 15.4800000000000004   T   T   T
  4.6650000000000000 26.3233499999999978 17.0350000000000001   T   T   T
  4.6650000000000000 22.0858499999999971 15.4800000000000004   T   T   T
  3.1099999999999999 17.8483499999999999 17.0350000000000001   T   T   T
  3.1099999999999999 22.8485999999999976 15.4800000000000004   T   T   T
  4.6650000000000000 27.0860999999999947 17.0350000000000001   T   T   T
  4.6650000000000000 31.3235999999999919 15.4800000000000004   T   T   T
  3.1099999999999999 18.6111000000000004 17.0350000000000001   T   T   T
  3.1099999999999999 28.0013999999999932 15.4800000000000004   T   T   T
  4.6650000000000000 23.7638999999999996 17.0350000000000001   T   T   T
  4.6650000000000000 19.5263999999999989 15.4800000000000004   T   T   T
  3.1099999999999999 32.2388999999999939 17.0350000000000001   T   T   T
  3.1099999999999999 20.2891499999999994 18.5899999999999999   T   T   T
  4.6650000000000000 24.5266499999999965 20.1449999999999996   T   T   T
  4.6650000000000000 28.7641499999999937 18.5899999999999999   T   T   T
  3.1099999999999999 33.0016499999999979 20.1449999999999996   T   T   T
  3.1099999999999999 30.5608499999999950 18.5899999999999999   T   T   T
  4.6650000000000000 26.3233499999999978 20.1449999999999996   T   T   T
  4.6650000000000000 22.0858499999999971 18.5899999999999999   T   T   T
  3.1099999999999999 17.8483499999999999 20.1449999999999996   T   T   T
  3.1099999999999999 22.8485999999999976 18.5899999999999999   T   T   T
  4.6650000000000000 27.0860999999999947 20.1449999999999996   T   T   T
  4.6650000000000000 31.3235999999999919 18.5899999999999999   T   T   T
  3.1099999999999999 18.6111000000000004 20.1449999999999996   T   T   T
  3.1099999999999999 28.0013999999999932 18.5899999999999999   T   T   T
  4.6650000000000000 23.7638999999999996 20.1449999999999996   T   T   T
  4.6650000000000000 19.5263999999999989 18.5899999999999999   T   T   T
  3.1099999999999999 32.2388999999999939 20.1449999999999996   T   T   T
  1.3034494764631102 12.7122299642679817 21.9450000000000003   T   T   T
  1.3034494764631102 15.1122299642679803 21.9450000000000003   T   T   T
  3.7034494764631098 12.7122299642679817 21.9450000000000003   T   T   T
  3.7034494764631098 15.1122299642679803 21.9450000000000003   T   T   T
