Mo B  Mo B  Mo B  Mo B  Mo B  Mo B  Mo B  Mo B  Mo B  Mo B  Mo B  Mo B  Mo B  Mo B  Mo B  Mo Pt Mo B 
 1.0000000000000000
     8.7964083579606509    0.0000000000000000    0.0000000000000000
    -4.3982041789803255   34.1841220451834857    0.0000000000000000
     0.0000000000000000    0.0000000000000000   23.8640520885999763
 Mo  B   Mo  B   Mo  B   Mo  B   Mo  B   Mo  B   Mo  B   Mo  B   Mo  B   Mo  B   Mo  B   Mo  B   Mo  B   Mo  B   Mo  B   Mo  Pt  Mo  B  
   8   8   8   8   8   8   8   8   8   8   8   8   8   8   8   8   8   8   8   8   8   8   8   8   8   8   8   8   8   8   4   1   3   8
Selective dynamics
Cartesian
  2.1991020894901623 13.7806644376398300  8.0000000000000000   F   F   F
 -0.0000000000000003  9.5783845074978089  8.5452060516222943   F   F   F
  3.2986531342352432  5.2346339263439612  8.0000000000000000   F   F   F
  1.0995510447450809  1.0323539962019381  8.5452060516222943   F   F   F
  2.1991020894901623  3.5943378869755733  9.3215794691324412   F   F   F
 -0.0000000000000006  7.7966178171175953  8.7763734175101469   F   F   F
  1.0995510447450809 12.1403683982714465  9.3215794691324412   F   F   F
 -1.0995510447450823 16.3426483284134640  8.7763734175101451   F   F   F
  2.1991020894901627 11.2424873598340529  8.3293044551798641   F   F   F
 -0.0000000000000014  7.0402074296920318  8.8745105068021584   F   F   F
  3.2986531342352436  2.6964568485381815  8.3293044551798641   F   F   F
 -1.0995510447450823 15.5862379409878997  8.8745105068021584   F   F   F
  2.1991020894901618  6.1325149647813539  8.9922750139525753   F   F   F
 -0.0000000000000005 10.3347948949233714  8.4470689623302810   F   F   F
  1.0995510447450807 14.6785454760772236  8.9922750139525753   F   F   F
  1.0995510447450809  1.7887643836275005  8.4470689623302810   F   F   F
 -0.0000000000000018 14.0636057396634921 10.1808242064891772   F   F   F
  2.1991020894901618  9.8613258095214711 10.7260302581114715   F   F   F
  1.0995510447450803  5.5175752283676243 10.1808242064891772   F   F   F
  3.2986531342352428  1.3152952982256005 10.7260302581114715   F   F   F
 -0.0000000000000009  3.8772791889992355 11.5024036756216184   F   F   F
  2.1991020894901618  8.0795591191412566 10.9571976239993241   F   F   F
 -1.0995510447450827 12.4233097002951087 11.5024036756216184   F   F   F
  1.0995510447450798 16.6255896304371262 10.9571976239993241   F   F   F
 -0.0000000000000014 11.5254286618577151 10.5101286616690430   F   F   F
  2.1991020894901618  7.3231487317156949 11.0553347132913373   F   F   F
  1.0995510447450809  2.9793981505618441 10.5101286616690430   F   F   F
  1.0995510447450791 15.8691792430115601 11.0553347132913373   F   F   F
 -0.0000000000000019  6.4154562668050179 11.1730992204417525   F   F   F
  2.1991020894901618 10.6177361969470336 10.6278931688194582   F   F   F
 -1.0995510447450827 14.9614867781008858 11.1730992204417525   F   F   F
  3.2986531342352432  2.0717056856511631 10.6278931688194582   F   F   F
  2.1991020894901605 14.3465470416871526 12.3616484129783561   T   T   T
 -0.0000000000000022 10.1442671115451315 12.9068544646006504   T   T   T
  3.2986531342352441  5.8005165303912865 12.3616484129783544   T   T   T
  1.0995510447450789  1.5982366002492625 12.9068544646006504   T   T   T
  2.1991020894901618  4.1602204910228977 13.6832278821107991   T   T   T
 -0.0000000000000012  8.3625004211649205 13.1380218304885013   T   T   T
  1.0995510447450800 12.7062510023187709 13.6832278821107991   T   T   T
 -1.0995510447450840 16.9085309324607884 13.1380218304885013   T   T   T
  2.1991020894901596 11.8083699638813791 12.6909528681582202   T   T   T
 -0.0000000000000021  7.6060900337393571 13.2361589197805145   T   T   T
  3.2986531342352414  3.2623394525855063 12.6909528681582202   T   T   T
 -1.0995510447450829 16.1521205450352241 13.2361589197805145   T   T   T
  2.1991020894901605  6.6983975688286801 13.3539234269309297   T   T   T
 -0.0000000000000015 10.9006774989706958 12.8087173753086390   T   T   T
  1.0995510447450787 15.2444280801245462 13.3539234269309297   T   T   T
  1.0995510447450798  2.3546469876748253 12.8087173753086372   T   T   T
 -0.0000000000000025 14.6294883437108165 14.5424726194675333   T   T   T
  2.1991020894901609 10.4272084135687955 15.0876786710898276   T   T   T
  1.0995510447450785  6.0834578324149478 14.5424726194675316   T   T   T
  3.2986531342352423  1.8811779022729251 15.0876786710898294   T   T   T
 -0.0000000000000007  4.4431617930465608 15.8640520885999763   T   T   T
  2.1991020894901601  8.6454417231885810 15.3188460369776820   T   T   T
 -1.0995510447450823 12.9891923043424349 15.8640520885999727   T   T   T
  3.2986531342352419  0.0994112118927064 15.3188460369776802   T   T   T
 -0.0000000000000013 12.0913112659050412 14.8717770746473974   T   T   T
  2.1991020894901614  7.8890313357630193 15.4169831262696952   T   T   T
  1.0995510447450783  3.5452807546091685 14.8717770746473974   T   T   T
  1.0995510447450789 16.4350618470588863 15.4169831262696935   T   T   T
 -0.0000000000000026  6.9813388708523414 15.5347476334201087   T   T   T
  2.1991020894901609 11.1836188009943580 14.9895415817978144   T   T   T
 -1.0995510447450836 15.5273693821482102 15.5347476334201087   T   T   T
  3.2986531342352423  2.6375882896984875 14.9895415817978144   T   T   T
 -0.0000000000000004 30.8727254602315710  8.0000000000000000   F   F   F
 -2.1991020894901632 26.6704455300895518  8.5452060516222943   F   F   F
  1.0995510447450805 22.3266949489357032  8.0000000000000000   F   F   F
 -1.0995510447450818 18.1244150187936803  8.5452060516222943   F   F   F
 -0.0000000000000004 20.6863989095673162  9.3215794691324412   F   F   F
 -2.1991020894901632 24.8886788397093390  8.7763734175101469   F   F   F
 -1.0995510447450818 29.2324294208631912  9.3215794691324412   F   F   F
 -3.2986531342352450 33.4347093510052105  8.7763734175101451   F   F   F
  0.0000000000000000 28.3345483824257940  8.3293044551798641   F   F   F
 -2.1991020894901641 24.1322684522837747  8.8745105068021584   F   F   F
  1.0995510447450809 19.7885178711299261  8.3293044551798641   F   F   F
 -3.2986531342352450 32.6782989635796426  8.8745105068021584   F   F   F
 -0.0000000000000009 23.2245759873730968  8.9922750139525753   F   F   F
 -2.1991020894901632 27.4268559175151125  8.4470689623302810   F   F   F
 -1.0995510447450820 31.7706064986689682  8.9922750139525753   F   F   F
 -1.0995510447450818 18.8808254062192447  8.4470689623302810   F   F   F
 -2.1991020894901645 31.1556667622552368 10.1808242064891772   F   F   F
 -0.0000000000000009 26.9533868321132140 10.7260302581114715   F   F   F
 -1.0995510447450825 22.6096362509593689 10.1808242064891772   F   F   F
  1.0995510447450800 18.4073563208173425 10.7260302581114715   F   F   F
 -2.1991020894901636 20.9693402115909784 11.5024036756216184   F   F   F
 -0.0000000000000009 25.1716201417330012 10.9571976239993241   F   F   F
 -3.2986531342352454 29.5153707228868498 11.5024036756216184   F   F   F
 -1.0995510447450829 33.7176506530288691 10.9571976239993241   F   F   F
 -2.1991020894901641 28.6174896844494597 10.5101286616690430   F   F   F
 -0.0000000000000009 24.4152097543074369 11.0553347132913373   F   F   F
 -1.0995510447450818 20.0714591731535883 10.5101286616690430   F   F   F
 -1.0995510447450836 32.9612402656033012 11.0553347132913373   F   F   F
 -2.1991020894901645 23.5075172893967590 11.1730992204417525   F   F   F
 -0.0000000000000009 27.7097972195387783 10.6278931688194582   F   F   F
 -3.2986531342352454 32.0535478006926269 11.1730992204417525   F   F   F
  1.0995510447450805 19.1637667082429068 10.6278931688194582   F   F   F
 -0.0000000000000022 31.4386080642788954 12.3616484129783561   T   T   T
 -2.1991020894901649 27.2363281341368761 12.9068544646006504   T   T   T
  1.0995510447450814 22.8925775529830275 12.3616484129783544   T   T   T
 -1.0995510447450838 18.6902976228410047 12.9068544646006504   T   T   T
 -0.0000000000000009 21.2522815136146406 13.6832278821107991   T   T   T
 -2.1991020894901641 25.4545614437566634 13.1380218304885013   T   T   T
 -1.0995510447450827 29.7983120249105156 13.6832278821107991   T   T   T
 -3.2986531342352468 34.0005919550525277 13.1380218304885013   T   T   T
 -0.0000000000000031 28.9004309864731219 12.6909528681582202   T   T   T
 -2.1991020894901649 24.6981510563310991 13.2361589197805145   T   T   T
  1.0995510447450787 20.3544004751772505 12.6909528681582202   T   T   T
 -3.2986531342352459 33.2441815676269670 13.2361589197805145   T   T   T
 -0.0000000000000022 23.7904585914204247 13.3539234269309297   T   T   T
 -2.1991020894901641 27.9927385215624369 12.8087173753086390   T   T   T
 -1.0995510447450840 32.3364891027162855 13.3539234269309297   T   T   T
 -1.0995510447450829 19.4467080102665690 12.8087173753086372   T   T   T
 -2.1991020894901654 31.7215493663025612 14.5424726194675333   T   T   T
 -0.0000000000000018 27.5192694361605383 15.0876786710898276   T   T   T
 -1.0995510447450842 23.1755188550066897 14.5424726194675316   T   T   T
  1.0995510447450796 18.9732389248646669 15.0876786710898294   T   T   T
 -2.1991020894901636 21.5352228156383028 15.8640520885999763   T   T   T
 -0.0000000000000027 25.7375027457803256 15.3188460369776820   T   T   T
 -3.2986531342352450 30.0812533269341777 15.8640520885999727   T   T   T
  1.0995510447450791 17.1914722344844506 15.3188460369776802   T   T   T
 -2.1991020894901641 29.1833722884967841 14.8717770746473974   T   T   T
 -0.0000000000000013 24.9810923583547613 15.4169831262696952   T   T   T
 -1.0995510447450845 20.6373417772009127 14.8717770746473974   T   T   T
 -1.0995510447450838 33.5271228696506256 15.4169831262696935   T   T   T
 -2.1991020894901654 24.0733998934440834 15.5347476334201087   T   T   T
 -0.0000000000000018 28.2756798235861027 14.9895415817978144   T   T   T
 -3.2986531342352463 32.6194304047399513 15.5347476334201087   T   T   T
  1.0995510447450796 19.7296493122902312 14.9895415817978144   T   T   T
  6.5973062684704882 13.7806644376398300  8.0000000000000000   F   F   F
  4.3982041789803255  9.5783845074978089  8.5452060516222943   F   F   F
  7.6968573132155687  5.2346339263439612  8.0000000000000000   F   F   F
  5.4977552237254059  1.0323539962019381  8.5452060516222943   F   F   F
  6.5973062684704882  3.5943378869755733  9.3215794691324412   F   F   F
  4.3982041789803246  7.7966178171175953  8.7763734175101469   F   F   F
  5.4977552237254059 12.1403683982714465  9.3215794691324412   F   F   F
  3.2986531342352432 16.3426483284134640  8.7763734175101451   F   F   F
  6.5973062684704882 11.2424873598340529  8.3293044551798641   F   F   F
  4.3982041789803237  7.0402074296920318  8.8745105068021584   F   F   F
  7.6968573132155687  2.6964568485381815  8.3293044551798641   F   F   F
  3.2986531342352432 15.5862379409878997  8.8745105068021584   F   F   F
  6.5973062684704873  6.1325149647813539  8.9922750139525753   F   F   F
  4.3982041789803246 10.3347948949233714  8.4470689623302810   F   F   F
  5.4977552237254059 14.6785454760772236  8.9922750139525753   F   F   F
  5.4977552237254059  1.7887643836275005  8.4470689623302810   F   F   F
  4.3982041789803237 14.0636057396634921 10.1808242064891772   F   F   F
  6.5973062684704873  9.8613258095214711 10.7260302581114715   F   F   F
  5.4977552237254059  5.5175752283676243 10.1808242064891772   F   F   F
  7.6968573132155687  1.3152952982256005 10.7260302581114715   F   F   F
  4.3982041789803246  3.8772791889992355 11.5024036756216184   F   F   F
  6.5973062684704873  8.0795591191412566 10.9571976239993241   F   F   F
  3.2986531342352428 12.4233097002951087 11.5024036756216184   F   F   F
  5.4977552237254050 16.6255896304371262 10.9571976239993241   F   F   F
  4.3982041789803237 11.5254286618577151 10.5101286616690430   F   F   F
  6.5973062684704873  7.3231487317156949 11.0553347132913373   F   F   F
  5.4977552237254059  2.9793981505618441 10.5101286616690430   F   F   F
  5.4977552237254042 15.8691792430115601 11.0553347132913373   F   F   F
  4.3982041789803237  6.4154562668050179 11.1730992204417525   F   F   F
  6.5973062684704873 10.6177361969470336 10.6278931688194582   F   F   F
  3.2986531342352428 14.9614867781008858 11.1730992204417525   F   F   F
  7.6968573132155687  2.0717056856511631 10.6278931688194582   F   F   F
  6.5973062684704864 14.3465470416871526 12.3616484129783561   T   T   T
  4.3982041789803237 10.1442671115451315 12.9068544646006504   T   T   T
  7.6968573132155695  5.8005165303912865 12.3616484129783544   T   T   T
  5.4977552237254042  1.5982366002492625 12.9068544646006504   T   T   T
  6.5973062684704873  4.1602204910228977 13.6832278821107991   T   T   T
  4.3982041789803246  8.3625004211649205 13.1380218304885013   T   T   T
  5.4977552237254059 12.7062510023187709 13.6832278821107991   T   T   T
  3.2986531342352414 16.9085309324607884 13.1380218304885013   T   T   T
  6.5973062684704846 11.8083699638813791 12.6909528681582202   T   T   T
  4.3982041789803237  7.6060900337393571 13.2361589197805145   T   T   T
  7.6968573132155669  3.2623394525855063 12.6909528681582202   T   T   T
  3.2986531342352423 16.1521205450352241 13.2361589197805145   T   T   T
  6.5973062684704864  6.6983975688286801 13.3539234269309297   T   T   T
  4.3982041789803237 10.9006774989706958 12.8087173753086390   T   T   T
  5.4977552237254042 15.2444280801245462 13.3539234269309297   T   T   T
  5.4977552237254050  2.3546469876748253 12.8087173753086372   T   T   T
  4.3982041789803228 14.6294883437108165 14.5424726194675333   T   T   T
  6.5973062684704864 10.4272084135687955 15.0876786710898276   T   T   T
  5.4977552237254042  6.0834578324149478 14.5424726194675316   T   T   T
  7.6968573132155678  1.8811779022729251 15.0876786710898294   T   T   T
  4.3982041789803246  4.4431617930465608 15.8640520885999763   T   T   T
  6.5973062684704855  8.6454417231885810 15.3188460369776820   T   T   T
  3.2986531342352432 12.9891923043424349 15.8640520885999727   T   T   T
  7.6968573132155669  0.0994112118927064 15.3188460369776802   T   T   T
  4.3982041789803246 12.0913112659050412 14.8717770746473974   T   T   T
  6.5973062684704864  7.8890313357630193 15.4169831262696952   T   T   T
  5.4977552237254042  3.5452807546091685 14.8717770746473974   T   T   T
  5.4977552237254042 16.4350618470588863 15.4169831262696935   T   T   T
  4.3982041789803228  6.9813388708523414 15.5347476334201087   T   T   T
  6.5973062684704864 11.1836188009943580 14.9895415817978144   T   T   T
  3.2986531342352419 15.5273693821482102 15.5347476334201087   T   T   T
  7.6968573132155678  2.6375882896984875 14.9895415817978144   T   T   T
  4.3982041789803255 30.8727254602315710  8.0000000000000000   F   F   F
  2.1991020894901623 26.6704455300895518  8.5452060516222943   F   F   F
  5.4977552237254059 22.3266949489357032  8.0000000000000000   F   F   F
  3.2986531342352436 18.1244150187936803  8.5452060516222943   F   F   F
  4.3982041789803255 20.6863989095673162  9.3215794691324412   F   F   F
  2.1991020894901623 24.8886788397093390  8.7763734175101469   F   F   F
  3.2986531342352436 29.2324294208631912  9.3215794691324412   F   F   F
  1.0995510447450805 33.4347093510052105  8.7763734175101451   F   F   F
  4.3982041789803255 28.3345483824257940  8.3293044551798641   F   F   F
  2.1991020894901614 24.1322684522837747  8.8745105068021584   F   F   F
  5.4977552237254059 19.7885178711299261  8.3293044551798641   F   F   F
  1.0995510447450805 32.6782989635796426  8.8745105068021584   F   F   F
  4.3982041789803246 23.2245759873730968  8.9922750139525753   F   F   F
  2.1991020894901623 27.4268559175151125  8.4470689623302810   F   F   F
  3.2986531342352432 31.7706064986689682  8.9922750139525753   F   F   F
  3.2986531342352436 18.8808254062192447  8.4470689623302810   F   F   F
  2.1991020894901609 31.1556667622552368 10.1808242064891772   F   F   F
  4.3982041789803246 26.9533868321132140 10.7260302581114715   F   F   F
  3.2986531342352432 22.6096362509593689 10.1808242064891772   F   F   F
  5.4977552237254059 18.4073563208173425 10.7260302581114715   F   F   F
  2.1991020894901618 20.9693402115909784 11.5024036756216184   F   F   F
  4.3982041789803246 25.1716201417330012 10.9571976239993241   F   F   F
  1.0995510447450800 29.5153707228868498 11.5024036756216184   F   F   F
  3.2986531342352423 33.7176506530288691 10.9571976239993241   F   F   F
  2.1991020894901614 28.6174896844494597 10.5101286616690430   F   F   F
  4.3982041789803246 24.4152097543074369 11.0553347132913373   F   F   F
  3.2986531342352436 20.0714591731535883 10.5101286616690430   F   F   F
  3.2986531342352419 32.9612402656033012 11.0553347132913373   F   F   F
  2.1991020894901609 23.5075172893967590 11.1730992204417525   F   F   F
  4.3982041789803246 27.7097972195387783 10.6278931688194582   F   F   F
  1.0995510447450800 32.0535478006926269 11.1730992204417525   F   F   F
  5.4977552237254059 19.1637667082429068 10.6278931688194582   F   F   F
  4.3982041789803237 31.4386080642788954 12.3616484129783561   T   T   T
  2.1991020894901605 27.2363281341368761 12.9068544646006504   T   T   T
  5.4977552237254068 22.8925775529830275 12.3616484129783544   T   T   T
  3.2986531342352414 18.6902976228410047 12.9068544646006504   T   T   T
  4.3982041789803246 21.2522815136146406 13.6832278821107991   T   T   T
  2.1991020894901614 25.4545614437566634 13.1380218304885013   T   T   T
  3.2986531342352428 29.7983120249105156 13.6832278821107991   T   T   T
  1.0995510447450787 34.0005919550525277 13.1380218304885013   T   T   T
  4.3982041789803219 28.9004309864731219 12.6909528681582202   T   T   T
  2.1991020894901605 24.6981510563310991 13.2361589197805145   T   T   T
  5.4977552237254042 20.3544004751772505 12.6909528681582202   T   T   T
  1.0995510447450798 33.2441815676269670 13.2361589197805145   T   T   T
  4.3982041789803237 23.7904585914204247 13.3539234269309297   T   T   T
  2.1991020894901614 27.9927385215624369 12.8087173753086390   T   T   T
  3.2986531342352414 32.3364891027162855 13.3539234269309297   T   T   T
  3.2986531342352423 19.4467080102665690 12.8087173753086372   T   T   T
  2.1991020894901601 31.7215493663025612 14.5424726194675333   T   T   T
  4.3982041789803237 27.5192694361605383 15.0876786710898276   T   T   T
  3.2986531342352414 23.1755188550066897 14.5424726194675316   T   T   T
  5.4977552237254050 18.9732389248646669 15.0876786710898294   T   T   T
  2.1991020894901618 21.5352228156383028 15.8640520885999763   T   T   T
  4.3982041789803228 25.7375027457803256 15.3188460369776820   T   T   T
  1.0995510447450805 30.0812533269341777 15.8640520885999727   T   T   T
  5.4977552237254042 17.1914722344844506 15.3188460369776802   T   T   T
  2.1991020894901614 29.1833722884967841 14.8717770746473974   T   T   T
  4.3982041789803237 24.9810923583547613 15.4169831262696952   T   T   T
  3.2986531342352410 20.6373417772009127 14.8717770746473974   T   T   T
  3.2986531342352414 33.5271228696506256 15.4169831262696935   T   T   T
  2.1991020894901601 24.0733998934440834 15.5347476334201087   T   T   T
  4.3982041789803237 28.2756798235861027 14.9895415817978144   T   T   T
  1.0995510447450791 32.6194304047399513 15.5347476334201087   T   T   T
  5.4977552237254050 19.7296493122902312 14.9895415817978144   T   T   T
