Mo Se Mo Se Mo Se Mo Se Mo Se Mo Se Mo Se Mo Se Mo Se Mo Se Mo Se Mo Se Mo Se Mo Se Mo Se Mo Se Mo Se Mo Se Mo Se Mo Se Mo Se Mo Se Mo Se Mo Se Mo Se Mo Se Mo Se Mo Se Mo Se Mo Se Mo Se Mo Se Mo Se Mo Se Mo Se Mo Se Mo Se Mo Se Mo Se Mo Se Mo Se Mo Se Mo Se Mo Se Mo Se Mo Se Mo Se Mo Se Mo Se Mo Se Mo Se Mo Se Mo Se Mo Se Mo Se Mo Se Mo Se Mo Se Mo Se Mo Se Mo Se Mo Se Mo Se Mo Se
 1.0000000000000000
    22.7868604243761510    0.0000000000000000    0.0000000000000000
   -11.3934302121880755   52.3945654052020799    0.0000000000000000
     0.0000000000000000    0.0000000000000000   25.2860214462720165
 Mo  Se  Mo  Se  Mo  Se  Mo  Se  Mo  Se  Mo  Se  Mo  Se  Mo  Se  Mo  Se  Mo  Se  Mo  Se  Mo  Se  Mo  Se  Mo  Se  Mo  Se  Mo  Se  Mo  Se  Mo  Se  Mo  Se  Mo  Se  Mo  Se  Mo  Se  Mo  Se  Mo  Se  Mo  Se  Mo  Se  Mo  Se  Mo  Se  Mo  Se  Mo  Se  Mo  Se  Mo  Se  Mo  Se  Mo  Se  Mo  Se  Mo  Se  Mo  Se  Mo  Se  Mo  Se  Mo  Se  Mo  Se  Mo  Se  Mo  Se  Mo  Se  Mo  Se  Mo  Se  Mo  Se  Mo  Se  Mo  Se  Mo  Se  Mo  Se  Mo  Se  Mo  Se  Mo  Se  Mo  Se  Mo  Se  Mo  Se  Mo  Se  Mo  Se  Mo  Se  Mo  Se  Mo  Se  Mo  Se  Mo  Se 
   1   2   1   2   1   2   1   2   1   2   1   2   1   2   1   2   1   2   1   2   1   2   1   2   1   2   1   2   1   2   1   2   1   2   1   2   1   2   1   2   1   2   1   2   1   2   1   2   1   2   1   2   1   2   1   2   1   2   1   2   1   2   1   2   1   2   1   2   1   2   1   2   1   2   1   2   1   2   1   2   1   2   1   2   1   2   1   2   1   2   1   2   1   2   1   2   1   2   1   2   1   2   1   2   1   2   1   2   1   2   1   2   1   2   1   2   1   2   1   2   1   2   1   2   1   2   1   2
Selective dynamics
Cartesian
  2.8483575530470193  6.6525520023760460 10.1957785720841496   F   F   F
 -0.9494525176823380  5.1054905586341723 10.3915571441682975   F   F   F
  0.9494525176823400  8.1996134461179206 10.0000000000000000   F   F   F
 -0.0000000000000001  6.8590146558276208 11.8272666727853881   F   F   F
  1.8989050353646799  5.3119532120857453 12.0230452448695377   F   F   F
  3.7978100707293589  8.4060760995694928 11.6314881007012385   F   F   F
  2.8483575530470180  7.0654773092791929 13.4587547734866266   T   T   T
 -0.9494525176823380  5.5184158655373174 13.6545333455707762   T   T   T
  0.9494525176823384  8.6125387530210666 13.2629762014024788   T   T   T
  0.0000000000000015  7.2719399627307642 15.0902428741878651   T   T   T
  1.8989050353646804  5.7248785189888904 15.2860214462720165   T   T   T
 -1.8989050353646770  8.8190014064726387 14.8944643021037173   T   T   T
  0.0000000000000004 19.7511933536765660 10.1957785720841496   F   F   F
 -3.7978100707293567 18.2041319099346914 10.3915571441682975   F   F   F
 -1.8989050353646788 21.2982547974184406 10.0000000000000000   F   F   F
 -2.8483575530470189 19.9576560071281399 11.8272666727853881   F   F   F
 -0.9494525176823390 18.4105945633862653 12.0230452448695377   F   F   F
  0.9494525176823401 21.5047174508700110 11.6314881007012385   F   F   F
 -0.0000000000000009 20.1641186605797138 13.4587547734866266   T   T   T
 -3.7978100707293567 18.6170572168378357 13.6545333455707762   T   T   T
 -1.8989050353646806 21.7111801043215848 13.2629762014024788   T   T   T
 -2.8483575530470175 20.3705813140312841 15.0902428741878651   T   T   T
 -0.9494525176823385 18.8235198702894095 15.2860214462720165   T   T   T
 -4.7472625884116955 21.9176427577731587 14.8944643021037173   T   T   T
 -2.8483575530470184 32.8498347049770842 10.1957785720841496   F   F   F
 -6.6461676237763756 31.3027732612352132 10.3915571441682975   F   F   F
 -4.7472625884116981 34.3968961487189588 10.0000000000000000   F   F   F
 -5.6967151060940378 33.0562973584286581 11.8272666727853881   F   F   F
 -3.7978100707293576 31.5092359146867835 12.0230452448695377   F   F   F
 -1.8989050353646788 34.6033588021705327 11.6314881007012385   F   F   F
 -2.8483575530470198 33.2627600118802320 13.4587547734866266   T   T   T
 -6.6461676237763756 31.7156985681383574 13.6545333455707762   T   T   T
 -4.7472625884116990 34.8098214556221066 13.2629762014024788   T   T   T
 -5.6967151060940360 33.4692226653318059 15.0902428741878651   T   T   T
 -3.7978100707293576 31.9221612215899313 15.2860214462720165   T   T   T
 -7.5956201414587152 35.0162841090736805 14.8944643021037173   T   T   T
 -5.6967151060940360 45.9484760562776060 10.1957785720841496   F   F   F
 -9.4945251768233945 44.4014146125357314 10.3915571441682975   F   F   F
 -7.5956201414587161 47.4955375000194806 10.0000000000000000   F   F   F
 -8.5450726591410557 46.1549387097291799 11.8272666727853881   F   F   F
 -6.6461676237763756 44.6078772659873053 12.0230452448695377   F   F   F
 -4.7472625884116972 47.7020001534710474 11.6314881007012385   F   F   F
 -5.6967151060940378 46.3614013631807538 13.4587547734866266   T   T   T
 -9.4945251768233945 44.8143399194388792 13.6545333455707762   T   T   T
 -7.5956201414587170 47.9084628069226284 13.2629762014024788   T   T   T
 -8.5450726591410540 46.5678640166323206 15.0902428741878651   T   T   T
 -6.6461676237763756 45.0208025728904460 15.2860214462720165   T   T   T
 -10.4439776945057332 48.1149254603741952 14.8944643021037173   T   T   T
  8.5450726591410575  6.6525520023760460 10.1957785720841496   F   F   F
  4.7472625884116999  5.1054905586341723 10.3915571441682975   F   F   F
  6.6461676237763774  8.1996134461179206 10.0000000000000000   F   F   F
  5.6967151060940378  6.8590146558276208 11.8272666727853881   F   F   F
  7.5956201414587179  5.3119532120857453 12.0230452448695377   F   F   F
  9.4945251768233963  8.4060760995694928 11.6314881007012385   F   F   F
  8.5450726591410557  7.0654773092791929 13.4587547734866266   T   T   T
  4.7472625884116999  5.5184158655373174 13.6545333455707762   T   T   T
  6.6461676237763765  8.6125387530210666 13.2629762014024788   T   T   T
  5.6967151060940395  7.2719399627307642 15.0902428741878651   T   T   T
  7.5956201414587179  5.7248785189888904 15.2860214462720165   T   T   T
  3.7978100707293607  8.8190014064726387 14.8944643021037173   T   T   T
  5.6967151060940378 19.7511933536765660 10.1957785720841496   F   F   F
  1.8989050353646810 18.2041319099346914 10.3915571441682975   F   F   F
  3.7978100707293589 21.2982547974184406 10.0000000000000000   F   F   F
  2.8483575530470189 19.9576560071281399 11.8272666727853881   F   F   F
  4.7472625884116990 18.4105945633862653 12.0230452448695377   F   F   F
  6.6461676237763783 21.5047174508700110 11.6314881007012385   F   F   F
  5.6967151060940369 20.1641186605797138 13.4587547734866266   T   T   T
  1.8989050353646810 18.6170572168378357 13.6545333455707762   T   T   T
  3.7978100707293572 21.7111801043215848 13.2629762014024788   T   T   T
  2.8483575530470202 20.3705813140312841 15.0902428741878651   T   T   T
  4.7472625884116990 18.8235198702894095 15.2860214462720165   T   T   T
  0.9494525176823418 21.9176427577731587 14.8944643021037173   T   T   T
  2.8483575530470193 32.8498347049770842 10.1957785720841496   F   F   F
 -0.9494525176823380 31.3027732612352132 10.3915571441682975   F   F   F
  0.9494525176823400 34.3968961487189588 10.0000000000000000   F   F   F
 -0.0000000000000001 33.0562973584286581 11.8272666727853881   F   F   F
  1.8989050353646799 31.5092359146867835 12.0230452448695377   F   F   F
  3.7978100707293589 34.6033588021705327 11.6314881007012385   F   F   F
  2.8483575530470180 33.2627600118802320 13.4587547734866266   T   T   T
 -0.9494525176823380 31.7156985681383574 13.6545333455707762   T   T   T
  0.9494525176823384 34.8098214556221066 13.2629762014024788   T   T   T
  0.0000000000000015 33.4692226653318059 15.0902428741878651   T   T   T
  1.8989050353646804 31.9221612215899313 15.2860214462720165   T   T   T
 -1.8989050353646770 35.0162841090736805 14.8944643021037173   T   T   T
  0.0000000000000013 45.9484760562776060 10.1957785720841496   F   F   F
 -3.7978100707293558 44.4014146125357314 10.3915571441682975   F   F   F
 -1.8989050353646779 47.4955375000194806 10.0000000000000000   F   F   F
 -2.8483575530470180 46.1549387097291799 11.8272666727853881   F   F   F
 -0.9494525176823381 44.6078772659873053 12.0230452448695377   F   F   F
  0.9494525176823410 47.7020001534710474 11.6314881007012385   F   F   F
  0.0000000000000000 46.3614013631807538 13.4587547734866266   T   T   T
 -3.7978100707293558 44.8143399194388792 13.6545333455707762   T   T   T
 -1.8989050353646797 47.9084628069226284 13.2629762014024788   T   T   T
 -2.8483575530470167 46.5678640166323206 15.0902428741878651   T   T   T
 -0.9494525176823376 45.0208025728904460 15.2860214462720165   T   T   T
 -4.7472625884116955 48.1149254603741952 14.8944643021037173   T   T   T
 14.2417877652350953  6.6525520023760460 10.1957785720841496   F   F   F
 10.4439776945057368  5.1054905586341723 10.3915571441682975   F   F   F
 12.3428827298704160  8.1996134461179206 10.0000000000000000   F   F   F
 11.3934302121880755  6.8590146558276208 11.8272666727853881   F   F   F
 13.2923352475527548  5.3119532120857453 12.0230452448695377   F   F   F
 15.1912402829174340  8.4060760995694928 11.6314881007012385   F   F   F
 14.2417877652350935  7.0654773092791929 13.4587547734866266   T   T   T
 10.4439776945057368  5.5184158655373174 13.6545333455707762   T   T   T
 12.3428827298704142  8.6125387530210666 13.2629762014024788   T   T   T
 11.3934302121880773  7.2719399627307642 15.0902428741878651   T   T   T
 13.2923352475527565  5.7248785189888904 15.2860214462720165   T   T   T
  9.4945251768233980  8.8190014064726387 14.8944643021037173   T   T   T
 11.3934302121880755 19.7511933536765660 10.1957785720841496   F   F   F
  7.5956201414587179 18.2041319099346914 10.3915571441682975   F   F   F
  9.4945251768233963 21.2982547974184406 10.0000000000000000   F   F   F
  8.5450726591410557 19.9576560071281399 11.8272666727853881   F   F   F
 10.4439776945057350 18.4105945633862653 12.0230452448695377   F   F   F
 12.3428827298704142 21.5047174508700110 11.6314881007012385   F   F   F
 11.3934302121880737 20.1641186605797138 13.4587547734866266   T   T   T
  7.5956201414587179 18.6170572168378357 13.6545333455707762   T   T   T
  9.4945251768233945 21.7111801043215848 13.2629762014024788   T   T   T
  8.5450726591410575 20.3705813140312841 15.0902428741878651   T   T   T
 10.4439776945057368 18.8235198702894095 15.2860214462720165   T   T   T
  6.6461676237763783 21.9176427577731587 14.8944643021037173   T   T   T
  8.5450726591410575 32.8498347049770842 10.1957785720841496   F   F   F
  4.7472625884116999 31.3027732612352132 10.3915571441682975   F   F   F
  6.6461676237763774 34.3968961487189588 10.0000000000000000   F   F   F
  5.6967151060940378 33.0562973584286581 11.8272666727853881   F   F   F
  7.5956201414587179 31.5092359146867835 12.0230452448695377   F   F   F
  9.4945251768233963 34.6033588021705327 11.6314881007012385   F   F   F
  8.5450726591410557 33.2627600118802320 13.4587547734866266   T   T   T
  4.7472625884116999 31.7156985681383574 13.6545333455707762   T   T   T
  6.6461676237763765 34.8098214556221066 13.2629762014024788   T   T   T
  5.6967151060940395 33.4692226653318059 15.0902428741878651   T   T   T
  7.5956201414587179 31.9221612215899313 15.2860214462720165   T   T   T
  3.7978100707293607 35.0162841090736805 14.8944643021037173   T   T   T
  5.6967151060940395 45.9484760562776060 10.1957785720841496   F   F   F
  1.8989050353646819 44.4014146125357314 10.3915571441682975   F   F   F
  3.7978100707293598 47.4955375000194806 10.0000000000000000   F   F   F
  2.8483575530470198 46.1549387097291799 11.8272666727853881   F   F   F
  4.7472625884116999 44.6078772659873053 12.0230452448695377   F   F   F
  6.6461676237763783 47.7020001534710474 11.6314881007012385   F   F   F
  5.6967151060940378 46.3614013631807538 13.4587547734866266   T   T   T
  1.8989050353646819 44.8143399194388792 13.6545333455707762   T   T   T
  3.7978100707293581 47.9084628069226284 13.2629762014024788   T   T   T
  2.8483575530470211 46.5678640166323206 15.0902428741878651   T   T   T
  4.7472625884116999 45.0208025728904460 15.2860214462720165   T   T   T
  0.9494525176823427 48.1149254603741952 14.8944643021037173   T   T   T
 19.9385028713291312  6.6525520023760460 10.1957785720841496   F   F   F
 16.1406928005997727  5.1054905586341723 10.3915571441682975   F   F   F
 18.0395978359644502  8.1996134461179206 10.0000000000000000   F   F   F
 17.0901453182821115  6.8590146558276208 11.8272666727853881   F   F   F
 18.9890503536467925  5.3119532120857453 12.0230452448695377   F   F   F
 20.8879553890114700  8.4060760995694928 11.6314881007012385   F   F   F
 19.9385028713291277  7.0654773092791929 13.4587547734866266   T   T   T
 16.1406928005997727  5.5184158655373174 13.6545333455707762   T   T   T
 18.0395978359644502  8.6125387530210666 13.2629762014024788   T   T   T
 17.0901453182821115  7.2719399627307642 15.0902428741878651   T   T   T
 18.9890503536467925  5.7248785189888904 15.2860214462720165   T   T   T
 15.1912402829174340  8.8190014064726387 14.8944643021037173   T   T   T
 17.0901453182821115 19.7511933536765660 10.1957785720841496   F   F   F
 13.2923352475527530 18.2041319099346914 10.3915571441682975   F   F   F
 15.1912402829174322 21.2982547974184406 10.0000000000000000   F   F   F
 14.2417877652350917 19.9576560071281399 11.8272666727853881   F   F   F
 16.1406928005997727 18.4105945633862653 12.0230452448695377   F   F   F
 18.0395978359644502 21.5047174508700110 11.6314881007012385   F   F   F
 17.0901453182821115 20.1641186605797138 13.4587547734866266   T   T   T
 13.2923352475527530 18.6170572168378357 13.6545333455707762   T   T   T
 15.1912402829174304 21.7111801043215848 13.2629762014024788   T   T   T
 14.2417877652350935 20.3705813140312841 15.0902428741878651   T   T   T
 16.1406928005997727 18.8235198702894095 15.2860214462720165   T   T   T
 12.3428827298704142 21.9176427577731587 14.8944643021037173   T   T   T
 14.2417877652350935 32.8498347049770842 10.1957785720841496   F   F   F
 10.4439776945057350 31.3027732612352132 10.3915571441682975   F   F   F
 12.3428827298704142 34.3968961487189588 10.0000000000000000   F   F   F
 11.3934302121880737 33.0562973584286581 11.8272666727853881   F   F   F
 13.2923352475527530 31.5092359146867835 12.0230452448695377   F   F   F
 15.1912402829174322 34.6033588021705327 11.6314881007012385   F   F   F
 14.2417877652350917 33.2627600118802320 13.4587547734866266   T   T   T
 10.4439776945057350 31.7156985681383574 13.6545333455707762   T   T   T
 12.3428827298704125 34.8098214556221066 13.2629762014024788   T   T   T
 11.3934302121880755 33.4692226653318059 15.0902428741878651   T   T   T
 13.2923352475527548 31.9221612215899313 15.2860214462720165   T   T   T
  9.4945251768233963 35.0162841090736805 14.8944643021037173   T   T   T
 11.3934302121880755 45.9484760562776060 10.1957785720841496   F   F   F
  7.5956201414587179 44.4014146125357314 10.3915571441682975   F   F   F
  9.4945251768233963 47.4955375000194806 10.0000000000000000   F   F   F
  8.5450726591410557 46.1549387097291799 11.8272666727853881   F   F   F
 10.4439776945057350 44.6078772659873053 12.0230452448695377   F   F   F
 12.3428827298704142 47.7020001534710474 11.6314881007012385   F   F   F
 11.3934302121880737 46.3614013631807538 13.4587547734866266   T   T   T
  7.5956201414587179 44.8143399194388792 13.6545333455707762   T   T   T
  9.4945251768233945 47.9084628069226284 13.2629762014024788   T   T   T
  8.5450726591410575 46.5678640166323206 15.0902428741878651   T   T   T
 10.4439776945057368 45.0208025728904460 15.2860214462720165   T   T   T
  6.6461676237763783 48.1149254603741952 14.8944643021037173   T   T   T
