Mo B  Mo B  Mo B  Mo B  Mo B  Mo B  Mo B  Mo B  Mo B  Mo B  Mo B  Mo B  Mo B  Mo B  Mo B  Mo B  Mo B  Mo B  Mo B  Mo B  Mo B  Mo B  Mo B  Mo B  Mo B  Mo B  Mo B  Mo B  Mo B  Mo B  Mo B  Mo B  Mo B  Mo B  Mo B  Mo B  Mo B  Mo B  Mo B  Mo B  Mo B  Mo B  Mo B  Mo B  Mo B  Mo B  Mo B  Mo B  Mo B  Mo B  Mo B  Mo B  Mo B  Mo B  Mo B  Mo B  Mo B  Mo B  Mo B  Mo B  Mo B  Mo B  Mo B  Mo B 
 1.0000000000000000
    12.4399999999999995    0.0000000000000000    0.0000000000000000
     0.0000000000000000   67.7999999999999972    0.0000000000000000
     0.0000000000000000    0.0000000000000000   30.8849999999999980
 Mo  B   Mo  B   Mo  B   Mo  B   Mo  B   Mo  B   Mo  B   Mo  B   Mo  B   Mo  B   Mo  B   Mo  B   Mo  B   Mo  B   Mo  B   Mo  B   Mo  B   Mo  B   Mo  B   Mo  B   Mo  B   Mo  B   Mo  B   Mo  B   Mo  B   Mo  B   Mo  B   Mo  B   Mo  B   Mo  B   Mo  B   Mo  B   Mo  B   Mo  B   Mo  B   Mo  B   Mo  B   Mo  B   Mo  B   Mo  B   Mo  B   Mo  B   Mo  B   Mo  B   Mo  B   Mo  B   Mo  B   Mo  B   Mo  B   Mo  B   Mo  B   Mo  B   Mo  B   Mo  B   Mo  B   Mo  B   Mo  B   Mo  B   Mo  B   Mo  B   Mo  B   Mo  B   Mo  B   Mo  B  
   8   8   8   8   8   8   8   8   8   8   8   8   8   8   8   8   8   8   8   8   8   8   8   8   8   8   8   8   8   8   8   8   8   8   8   8   8   8   8   8   8   8   8   8   8   8   8   8   8   8   8   8   8   8   8   8   8   8   8   8   8   8   8   8   8   8   8   8   8   8   8   8   8   8   8   8   8   8   8   8   8   8   8   8   8   8   8   8   8   8   8   8   8   8   8   8   8   8   8   8   8   8   8   8   8   8   8   8   8   8   8   8   8   8   8   8   8   8   8   8   8   8   8   8   8   8   8   8
Selective dynamics
Cartesian
  0.0000000000000000  3.3391499999999996 10.0000000000000000   F   F   F
  1.5549999999999999  7.5766499999999981 11.5549999999999997   F   F   F
  1.5549999999999999 11.8141499999999926 10.0000000000000000   F   F   F
  0.0000000000000000 16.0516499999999951 11.5549999999999997   F   F   F
  0.0000000000000000 13.6108499999999957 10.0000000000000000   F   F   F
  1.5549999999999999  9.3733499999999985 11.5549999999999997   F   F   F
  1.5549999999999999  5.1358499999999987 10.0000000000000000   F   F   F
  0.0000000000000000  0.8983499999999996 11.5549999999999997   F   F   F
  0.0000000000000000  5.8985999999999974 10.0000000000000000   F   F   F
  1.5549999999999999 10.1360999999999972 11.5549999999999997   F   F   F
  1.5549999999999999 14.3735999999999944 10.0000000000000000   F   F   F
  0.0000000000000000  1.6610999999999998 11.5549999999999997   F   F   F
  0.0000000000000000 11.0513999999999939 10.0000000000000000   F   F   F
  1.5549999999999999  6.8138999999999994 11.5549999999999997   F   F   F
  1.5549999999999999  2.5763999999999996 10.0000000000000000   F   F   F
  0.0000000000000000 15.2888999999999964 11.5549999999999997   F   F   F
  0.0000000000000000  3.3391499999999996 13.1099999999999994   F   F   F
  1.5549999999999999  7.5766499999999981 14.6649999999999991   F   F   F
  1.5549999999999999 11.8141499999999926 13.1099999999999994   F   F   F
  0.0000000000000000 16.0516499999999951 14.6649999999999991   F   F   F
  0.0000000000000000 13.6108499999999957 13.1099999999999994   F   F   F
  1.5549999999999999  9.3733499999999985 14.6649999999999991   F   F   F
  1.5549999999999999  5.1358499999999987 13.1099999999999994   F   F   F
  0.0000000000000000  0.8983499999999996 14.6649999999999991   F   F   F
  0.0000000000000000  5.8985999999999974 13.1099999999999994   F   F   F
  1.5549999999999999 10.1360999999999972 14.6649999999999991   F   F   F
  1.5549999999999999 14.3735999999999944 13.1099999999999994   F   F   F
  0.0000000000000000  1.6610999999999998 14.6649999999999991   F   F   F
  0.0000000000000000 11.0513999999999939 13.1099999999999994   F   F   F
  1.5549999999999999  6.8138999999999994 14.6649999999999991   F   F   F
  1.5549999999999999  2.5763999999999996 13.1099999999999994   F   F   F
  0.0000000000000000 15.2888999999999964 14.6649999999999991   F   F   F
  0.0000000000000000  3.3391499999999996 16.2199999999999989   T   T   T
  1.5549999999999999  7.5766499999999981 17.7749999999999986   T   T   T
  1.5549999999999999 11.8141499999999926 16.2199999999999989   T   T   T
  0.0000000000000000 16.0516499999999951 17.7749999999999986   T   T   T
  0.0000000000000000 13.6108499999999957 16.2199999999999989   T   T   T
  1.5549999999999999  9.3733499999999985 17.7749999999999986   T   T   T
  1.5549999999999999  5.1358499999999987 16.2199999999999989   T   T   T
  0.0000000000000000  0.8983499999999996 17.7749999999999986   T   T   T
  0.0000000000000000  5.8985999999999974 16.2199999999999989   T   T   T
  1.5549999999999999 10.1360999999999972 17.7749999999999986   T   T   T
  1.5549999999999999 14.3735999999999944 16.2199999999999989   T   T   T
  0.0000000000000000  1.6610999999999998 17.7749999999999986   T   T   T
  0.0000000000000000 11.0513999999999939 16.2199999999999989   T   T   T
  1.5549999999999999  6.8138999999999994 17.7749999999999986   T   T   T
  1.5549999999999999  2.5763999999999996 16.2199999999999989   T   T   T
  0.0000000000000000 15.2888999999999964 17.7749999999999986   T   T   T
  0.0000000000000000  3.3391499999999996 19.3299999999999983   T   T   T
  1.5549999999999999  7.5766499999999981 20.8849999999999980   T   T   T
  1.5549999999999999 11.8141499999999926 19.3299999999999983   T   T   T
  0.0000000000000000 16.0516499999999951 20.8849999999999980   T   T   T
  0.0000000000000000 13.6108499999999957 19.3299999999999983   T   T   T
  1.5549999999999999  9.3733499999999985 20.8849999999999980   T   T   T
  1.5549999999999999  5.1358499999999987 19.3299999999999983   T   T   T
  0.0000000000000000  0.8983499999999996 20.8849999999999980   T   T   T
  0.0000000000000000  5.8985999999999974 19.3299999999999983   T   T   T
  1.5549999999999999 10.1360999999999972 20.8849999999999980   T   T   T
  1.5549999999999999 14.3735999999999944 19.3299999999999983   T   T   T
  0.0000000000000000  1.6610999999999998 20.8849999999999980   T   T   T
  0.0000000000000000 11.0513999999999939 19.3299999999999983   T   T   T
  1.5549999999999999  6.8138999999999994 20.8849999999999980   T   T   T
  1.5549999999999999  2.5763999999999996 19.3299999999999983   T   T   T
  0.0000000000000000 15.2888999999999964 20.8849999999999980   T   T   T
  0.0000000000000000 20.2891499999999994 10.0000000000000000   F   F   F
  1.5549999999999999 24.5266499999999965 11.5549999999999997   F   F   F
  1.5549999999999999 28.7641499999999937 10.0000000000000000   F   F   F
  0.0000000000000000 33.0016499999999979 11.5549999999999997   F   F   F
  0.0000000000000000 30.5608499999999950 10.0000000000000000   F   F   F
  1.5549999999999999 26.3233499999999978 11.5549999999999997   F   F   F
  1.5549999999999999 22.0858499999999971 10.0000000000000000   F   F   F
  0.0000000000000000 17.8483499999999999 11.5549999999999997   F   F   F
  0.0000000000000000 22.8485999999999976 10.0000000000000000   F   F   F
  1.5549999999999999 27.0860999999999947 11.5549999999999997   F   F   F
  1.5549999999999999 31.3235999999999919 10.0000000000000000   F   F   F
  0.0000000000000000 18.6111000000000004 11.5549999999999997   F   F   F
  0.0000000000000000 28.0013999999999932 10.0000000000000000   F   F   F
  1.5549999999999999 23.7638999999999996 11.5549999999999997   F   F   F
  1.5549999999999999 19.5263999999999989 10.0000000000000000   F   F   F
  0.0000000000000000 32.2388999999999939 11.5549999999999997   F   F   F
  0.0000000000000000 20.2891499999999994 13.1099999999999994   F   F   F
  1.5549999999999999 24.5266499999999965 14.6649999999999991   F   F   F
  1.5549999999999999 28.7641499999999937 13.1099999999999994   F   F   F
  0.0000000000000000 33.0016499999999979 14.6649999999999991   F   F   F
  0.0000000000000000 30.5608499999999950 13.1099999999999994   F   F   F
  1.5549999999999999 26.3233499999999978 14.6649999999999991   F   F   F
  1.5549999999999999 22.0858499999999971 13.1099999999999994   F   F   F
  0.0000000000000000 17.8483499999999999 14.6649999999999991   F   F   F
  0.0000000000000000 22.8485999999999976 13.1099999999999994   F   F   F
  1.5549999999999999 27.0860999999999947 14.6649999999999991   F   F   F
  1.5549999999999999 31.3235999999999919 13.1099999999999994   F   F   F
  0.0000000000000000 18.6111000000000004 14.6649999999999991   F   F   F
  0.0000000000000000 28.0013999999999932 13.1099999999999994   F   F   F
  1.5549999999999999 23.7638999999999996 14.6649999999999991   F   F   F
  1.5549999999999999 19.5263999999999989 13.1099999999999994   F   F   F
  0.0000000000000000 32.2388999999999939 14.6649999999999991   F   F   F
  0.0000000000000000 20.2891499999999994 16.2199999999999989   T   T   T
  1.5549999999999999 24.5266499999999965 17.7749999999999986   T   T   T
  1.5549999999999999 28.7641499999999937 16.2199999999999989   T   T   T
  0.0000000000000000 33.0016499999999979 17.7749999999999986   T   T   T
  0.0000000000000000 30.5608499999999950 16.2199999999999989   T   T   T
  1.5549999999999999 26.3233499999999978 17.7749999999999986   T   T   T
  1.5549999999999999 22.0858499999999971 16.2199999999999989   T   T   T
  0.0000000000000000 17.8483499999999999 17.7749999999999986   T   T   T
  0.0000000000000000 22.8485999999999976 16.2199999999999989   T   T   T
  1.5549999999999999 27.0860999999999947 17.7749999999999986   T   T   T
  1.5549999999999999 31.3235999999999919 16.2199999999999989   T   T   T
  0.0000000000000000 18.6111000000000004 17.7749999999999986   T   T   T
  0.0000000000000000 28.0013999999999932 16.2199999999999989   T   T   T
  1.5549999999999999 23.7638999999999996 17.7749999999999986   T   T   T
  1.5549999999999999 19.5263999999999989 16.2199999999999989   T   T   T
  0.0000000000000000 32.2388999999999939 17.7749999999999986   T   T   T
  0.0000000000000000 20.2891499999999994 19.3299999999999983   T   T   T
  1.5549999999999999 24.5266499999999965 20.8849999999999980   T   T   T
  1.5549999999999999 28.7641499999999937 19.3299999999999983   T   T   T
  0.0000000000000000 33.0016499999999979 20.8849999999999980   T   T   T
  0.0000000000000000 30.5608499999999950 19.3299999999999983   T   T   T
  1.5549999999999999 26.3233499999999978 20.8849999999999980   T   T   T
  1.5549999999999999 22.0858499999999971 19.3299999999999983   T   T   T
  0.0000000000000000 17.8483499999999999 20.8849999999999980   T   T   T
  0.0000000000000000 22.8485999999999976 19.3299999999999983   T   T   T
  1.5549999999999999 27.0860999999999947 20.8849999999999980   T   T   T
  1.5549999999999999 31.3235999999999919 19.3299999999999983   T   T   T
  0.0000000000000000 18.6111000000000004 20.8849999999999980   T   T   T
  0.0000000000000000 28.0013999999999932 19.3299999999999983   T   T   T
  1.5549999999999999 23.7638999999999996 20.8849999999999980   T   T   T
  1.5549999999999999 19.5263999999999989 19.3299999999999983   T   T   T
  0.0000000000000000 32.2388999999999939 20.8849999999999980   T   T   T
  0.0000000000000000 37.2391499999999951 10.0000000000000000   F   F   F
  1.5549999999999999 41.4766499999999994 11.5549999999999997   F   F   F
  1.5549999999999999 45.7141499999999894 10.0000000000000000   F   F   F
  0.0000000000000000 49.9516499999999937 11.5549999999999997   F   F   F
  0.0000000000000000 47.5108499999999907 10.0000000000000000   F   F   F
  1.5549999999999999 43.2733499999999935 11.5549999999999997   F   F   F
  1.5549999999999999 39.0358499999999964 10.0000000000000000   F   F   F
  0.0000000000000000 34.7983499999999992 11.5549999999999997   F   F   F
  0.0000000000000000 39.7985999999999933 10.0000000000000000   F   F   F
  1.5549999999999999 44.0360999999999976 11.5549999999999997   F   F   F
  1.5549999999999999 48.2735999999999947 10.0000000000000000   F   F   F
  0.0000000000000000 35.5610999999999962 11.5549999999999997   F   F   F
  0.0000000000000000 44.9513999999999925 10.0000000000000000   F   F   F
  1.5549999999999999 40.7138999999999953 11.5549999999999997   F   F   F
  1.5549999999999999 36.4763999999999982 10.0000000000000000   F   F   F
  0.0000000000000000 49.1888999999999967 11.5549999999999997   F   F   F
  0.0000000000000000 37.2391499999999951 13.1099999999999994   F   F   F
  1.5549999999999999 41.4766499999999994 14.6649999999999991   F   F   F
  1.5549999999999999 45.7141499999999894 13.1099999999999994   F   F   F
  0.0000000000000000 49.9516499999999937 14.6649999999999991   F   F   F
  0.0000000000000000 47.5108499999999907 13.1099999999999994   F   F   F
  1.5549999999999999 43.2733499999999935 14.6649999999999991   F   F   F
  1.5549999999999999 39.0358499999999964 13.1099999999999994   F   F   F
  0.0000000000000000 34.7983499999999992 14.6649999999999991   F   F   F
  0.0000000000000000 39.7985999999999933 13.1099999999999994   F   F   F
  1.5549999999999999 44.0360999999999976 14.6649999999999991   F   F   F
  1.5549999999999999 48.2735999999999947 13.1099999999999994   F   F   F
  0.0000000000000000 35.5610999999999962 14.6649999999999991   F   F   F
  0.0000000000000000 44.9513999999999925 13.1099999999999994   F   F   F
  1.5549999999999999 40.7138999999999953 14.6649999999999991   F   F   F
  1.5549999999999999 36.4763999999999982 13.1099999999999994   F   F   F
  0.0000000000000000 49.1888999999999967 14.6649999999999991   F   F   F
  0.0000000000000000 37.2391499999999951 16.2199999999999989   T   T   T
  1.5549999999999999 41.4766499999999994 17.7749999999999986   T   T   T
  1.5549999999999999 45.7141499999999894 16.2199999999999989   T   T   T
  0.0000000000000000 49.9516499999999937 17.7749999999999986   T   T   T
  0.0000000000000000 47.5108499999999907 16.2199999999999989   T   T   T
  1.5549999999999999 43.2733499999999935 17.7749999999999986   T   T   T
  1.5549999999999999 39.0358499999999964 16.2199999999999989   T   T   T
  0.0000000000000000 34.7983499999999992 17.7749999999999986   T   T   T
  0.0000000000000000 39.7985999999999933 16.2199999999999989   T   T   T
  1.5549999999999999 44.0360999999999976 17.7749999999999986   T   T   T
  1.5549999999999999 48.2735999999999947 16.2199999999999989   T   T   T
  0.0000000000000000 35.5610999999999962 17.7749999999999986   T   T   T
  0.0000000000000000 44.9513999999999925 16.2199999999999989   T   T   T
  1.5549999999999999 40.7138999999999953 17.7749999999999986   T   T   T
  1.5549999999999999 36.4763999999999982 16.2199999999999989   T   T   T
  0.0000000000000000 49.1888999999999967 17.7749999999999986   T   T   T
  0.0000000000000000 37.2391499999999951 19.3299999999999983   T   T   T
  1.5549999999999999 41.4766499999999994 20.8849999999999980   T   T   T
  1.5549999999999999 45.7141499999999894 19.3299999999999983   T   T   T
  0.0000000000000000 49.9516499999999937 20.8849999999999980   T   T   T
  0.0000000000000000 47.5108499999999907 19.3299999999999983   T   T   T
  1.5549999999999999 43.2733499999999935 20.8849999999999980   T   T   T
  1.5549999999999999 39.0358499999999964 19.3299999999999983   T   T   T
  0.0000000000000000 34.7983499999999992 20.8849999999999980   T   T   T
  0.0000000000000000 39.7985999999999933 19.3299999999999983   T   T   T
  1.5549999999999999 44.0360999999999976 20.8849999999999980   T   T   T
  1.5549999999999999 48.2735999999999947 19.3299999999999983   T   T   T
  0.0000000000000000 35.5610999999999962 20.8849999999999980   T   T   T
  0.0000000000000000 44.9513999999999925 19.3299999999999983   T   T   T
  1.5549999999999999 40.7138999999999953 20.8849999999999980   T   T   T
  1.5549999999999999 36.4763999999999982 19.3299999999999983   T   T   T
  0.0000000000000000 49.1888999999999967 20.8849999999999980   T   T   T
  0.0000000000000000 54.1891499999999908 10.0000000000000000   F   F   F
  1.5549999999999999 58.4266499999999951 11.5549999999999997   F   F   F
  1.5549999999999999 62.6641499999999851 10.0000000000000000   F   F   F
  0.0000000000000000 66.9016499999999894 11.5549999999999997   F   F   F
  0.0000000000000000 64.4608499999999935 10.0000000000000000   F   F   F
  1.5549999999999999 60.2233499999999964 11.5549999999999997   F   F   F
  1.5549999999999999 55.9858499999999921 10.0000000000000000   F   F   F
  0.0000000000000000 51.7483499999999950 11.5549999999999997   F   F   F
  0.0000000000000000 56.7485999999999891 10.0000000000000000   F   F   F
  1.5549999999999999 60.9860999999999933 11.5549999999999997   F   F   F
  1.5549999999999999 65.2235999999999905 10.0000000000000000   F   F   F
  0.0000000000000000 52.5110999999999919 11.5549999999999997   F   F   F
  0.0000000000000000 61.9013999999999882 10.0000000000000000   F   F   F
  1.5549999999999999 57.6638999999999911 11.5549999999999997   F   F   F
  1.5549999999999999 53.4263999999999939 10.0000000000000000   F   F   F
  0.0000000000000000 66.1388999999999925 11.5549999999999997   F   F   F
  0.0000000000000000 54.1891499999999908 13.1099999999999994   F   F   F
  1.5549999999999999 58.4266499999999951 14.6649999999999991   F   F   F
  1.5549999999999999 62.6641499999999851 13.1099999999999994   F   F   F
  0.0000000000000000 66.9016499999999894 14.6649999999999991   F   F   F
  0.0000000000000000 64.4608499999999935 13.1099999999999994   F   F   F
  1.5549999999999999 60.2233499999999964 14.6649999999999991   F   F   F
  1.5549999999999999 55.9858499999999921 13.1099999999999994   F   F   F
  0.0000000000000000 51.7483499999999950 14.6649999999999991   F   F   F
  0.0000000000000000 56.7485999999999891 13.1099999999999994   F   F   F
  1.5549999999999999 60.9860999999999933 14.6649999999999991   F   F   F
  1.5549999999999999 65.2235999999999905 13.1099999999999994   F   F   F
  0.0000000000000000 52.5110999999999919 14.6649999999999991   F   F   F
  0.0000000000000000 61.9013999999999882 13.1099999999999994   F   F   F
  1.5549999999999999 57.6638999999999911 14.6649999999999991   F   F   F
  1.5549999999999999 53.4263999999999939 13.1099999999999994   F   F   F
  0.0000000000000000 66.1388999999999925 14.6649999999999991   F   F   F
  0.0000000000000000 54.1891499999999908 16.2199999999999989   T   T   T
  1.5549999999999999 58.4266499999999951 17.7749999999999986   T   T   T
  1.5549999999999999 62.6641499999999851 16.2199999999999989   T   T   T
  0.0000000000000000 66.9016499999999894 17.7749999999999986   T   T   T
  0.0000000000000000 64.4608499999999935 16.2199999999999989   T   T   T
  1.5549999999999999 60.2233499999999964 17.7749999999999986   T   T   T
  1.5549999999999999 55.9858499999999921 16.2199999999999989   T   T   T
  0.0000000000000000 51.7483499999999950 17.7749999999999986   T   T   T
  0.0000000000000000 56.7485999999999891 16.2199999999999989   T   T   T
  1.5549999999999999 60.9860999999999933 17.7749999999999986   T   T   T
  1.5549999999999999 65.2235999999999905 16.2199999999999989   T   T   T
  0.0000000000000000 52.5110999999999919 17.7749999999999986   T   T   T
  0.0000000000000000 61.9013999999999882 16.2199999999999989   T   T   T
  1.5549999999999999 57.6638999999999911 17.7749999999999986   T   T   T
  1.5549999999999999 53.4263999999999939 16.2199999999999989   T   T   T
  0.0000000000000000 66.1388999999999925 17.7749999999999986   T   T   T
  0.0000000000000000 54.1891499999999908 19.3299999999999983   T   T   T
  1.5549999999999999 58.4266499999999951 20.8849999999999980   T   T   T
  1.5549999999999999 62.6641499999999851 19.3299999999999983   T   T   T
  0.0000000000000000 66.9016499999999894 20.8849999999999980   T   T   T
  0.0000000000000000 64.4608499999999935 19.3299999999999983   T   T   T
  1.5549999999999999 60.2233499999999964 20.8849999999999980   T   T   T
  1.5549999999999999 55.9858499999999921 19.3299999999999983   T   T   T
  0.0000000000000000 51.7483499999999950 20.8849999999999980   T   T   T
  0.0000000000000000 56.7485999999999891 19.3299999999999983   T   T   T
  1.5549999999999999 60.9860999999999933 20.8849999999999980   T   T   T
  1.5549999999999999 65.2235999999999905 19.3299999999999983   T   T   T
  0.0000000000000000 52.5110999999999919 20.8849999999999980   T   T   T
  0.0000000000000000 61.9013999999999882 19.3299999999999983   T   T   T
  1.5549999999999999 57.6638999999999911 20.8849999999999980   T   T   T
  1.5549999999999999 53.4263999999999939 19.3299999999999983   T   T   T
  0.0000000000000000 66.1388999999999925 20.8849999999999980   T   T   T
  3.1099999999999999  3.3391499999999996 10.0000000000000000   F   F   F
  4.6650000000000000  7.5766499999999981 11.5549999999999997   F   F   F
  4.6650000000000000 11.8141499999999926 10.0000000000000000   F   F   F
  3.1099999999999999 16.0516499999999951 11.5549999999999997   F   F   F
  3.1099999999999999 13.6108499999999957 10.0000000000000000   F   F   F
  4.6650000000000000  9.3733499999999985 11.5549999999999997   F   F   F
  4.6650000000000000  5.1358499999999987 10.0000000000000000   F   F   F
  3.1099999999999999  0.8983499999999996 11.5549999999999997   F   F   F
  3.1099999999999999  5.8985999999999974 10.0000000000000000   F   F   F
  4.6650000000000000 10.1360999999999972 11.5549999999999997   F   F   F
  4.6650000000000000 14.3735999999999944 10.0000000000000000   F   F   F
  3.1099999999999999  1.6610999999999998 11.5549999999999997   F   F   F
  3.1099999999999999 11.0513999999999939 10.0000000000000000   F   F   F
  4.6650000000000000  6.8138999999999994 11.5549999999999997   F   F   F
  4.6650000000000000  2.5763999999999996 10.0000000000000000   F   F   F
  3.1099999999999999 15.2888999999999964 11.5549999999999997   F   F   F
  3.1099999999999999  3.3391499999999996 13.1099999999999994   F   F   F
  4.6650000000000000  7.5766499999999981 14.6649999999999991   F   F   F
  4.6650000000000000 11.8141499999999926 13.1099999999999994   F   F   F
  3.1099999999999999 16.0516499999999951 14.6649999999999991   F   F   F
  3.1099999999999999 13.6108499999999957 13.1099999999999994   F   F   F
  4.6650000000000000  9.3733499999999985 14.6649999999999991   F   F   F
  4.6650000000000000  5.1358499999999987 13.1099999999999994   F   F   F
  3.1099999999999999  0.8983499999999996 14.6649999999999991   F   F   F
  3.1099999999999999  5.8985999999999974 13.1099999999999994   F   F   F
  4.6650000000000000 10.1360999999999972 14.6649999999999991   F   F   F
  4.6650000000000000 14.3735999999999944 13.1099999999999994   F   F   F
  3.1099999999999999  1.6610999999999998 14.6649999999999991   F   F   F
  3.1099999999999999 11.0513999999999939 13.1099999999999994   F   F   F
  4.6650000000000000  6.8138999999999994 14.6649999999999991   F   F   F
  4.6650000000000000  2.5763999999999996 13.1099999999999994   F   F   F
  3.1099999999999999 15.2888999999999964 14.6649999999999991   F   F   F
  3.1099999999999999  3.3391499999999996 16.2199999999999989   T   T   T
  4.6650000000000000  7.5766499999999981 17.7749999999999986   T   T   T
  4.6650000000000000 11.8141499999999926 16.2199999999999989   T   T   T
  3.1099999999999999 16.0516499999999951 17.7749999999999986   T   T   T
  3.1099999999999999 13.6108499999999957 16.2199999999999989   T   T   T
  4.6650000000000000  9.3733499999999985 17.7749999999999986   T   T   T
  4.6650000000000000  5.1358499999999987 16.2199999999999989   T   T   T
  3.1099999999999999  0.8983499999999996 17.7749999999999986   T   T   T
  3.1099999999999999  5.8985999999999974 16.2199999999999989   T   T   T
  4.6650000000000000 10.1360999999999972 17.7749999999999986   T   T   T
  4.6650000000000000 14.3735999999999944 16.2199999999999989   T   T   T
  3.1099999999999999  1.6610999999999998 17.7749999999999986   T   T   T
  3.1099999999999999 11.0513999999999939 16.2199999999999989   T   T   T
  4.6650000000000000  6.8138999999999994 17.7749999999999986   T   T   T
  4.6650000000000000  2.5763999999999996 16.2199999999999989   T   T   T
  3.1099999999999999 15.2888999999999964 17.7749999999999986   T   T   T
  3.1099999999999999  3.3391499999999996 19.3299999999999983   T   T   T
  4.6650000000000000  7.5766499999999981 20.8849999999999980   T   T   T
  4.6650000000000000 11.8141499999999926 19.3299999999999983   T   T   T
  3.1099999999999999 16.0516499999999951 20.8849999999999980   T   T   T
  3.1099999999999999 13.6108499999999957 19.3299999999999983   T   T   T
  4.6650000000000000  9.3733499999999985 20.8849999999999980   T   T   T
  4.6650000000000000  5.1358499999999987 19.3299999999999983   T   T   T
  3.1099999999999999  0.8983499999999996 20.8849999999999980   T   T   T
  3.1099999999999999  5.8985999999999974 19.3299999999999983   T   T   T
  4.6650000000000000 10.1360999999999972 20.8849999999999980   T   T   T
  4.6650000000000000 14.3735999999999944 19.3299999999999983   T   T   T
  3.1099999999999999  1.6610999999999998 20.8849999999999980   T   T   T
  3.1099999999999999 11.0513999999999939 19.3299999999999983   T   T   T
  4.6650000000000000  6.8138999999999994 20.8849999999999980   T   T   T
  4.6650000000000000  2.5763999999999996 19.3299999999999983   T   T   T
  3.1099999999999999 15.2888999999999964 20.8849999999999980   T   T   T
  3.1099999999999999 20.2891499999999994 10.0000000000000000   F   F   F
  4.6650000000000000 24.5266499999999965 11.5549999999999997   F   F   F
  4.6650000000000000 28.7641499999999937 10.0000000000000000   F   F   F
  3.1099999999999999 33.0016499999999979 11.5549999999999997   F   F   F
  3.1099999999999999 30.5608499999999950 10.0000000000000000   F   F   F
  4.6650000000000000 26.3233499999999978 11.5549999999999997   F   F   F
  4.6650000000000000 22.0858499999999971 10.0000000000000000   F   F   F
  3.1099999999999999 17.8483499999999999 11.5549999999999997   F   F   F
  3.1099999999999999 22.8485999999999976 10.0000000000000000   F   F   F
  4.6650000000000000 27.0860999999999947 11.5549999999999997   F   F   F
  4.6650000000000000 31.3235999999999919 10.0000000000000000   F   F   F
  3.1099999999999999 18.6111000000000004 11.5549999999999997   F   F   F
  3.1099999999999999 28.0013999999999932 10.0000000000000000   F   F   F
  4.6650000000000000 23.7638999999999996 11.5549999999999997   F   F   F
  4.6650000000000000 19.5263999999999989 10.0000000000000000   F   F   F
  3.1099999999999999 32.2388999999999939 11.5549999999999997   F   F   F
  3.1099999999999999 20.2891499999999994 13.1099999999999994   F   F   F
  4.6650000000000000 24.5266499999999965 14.6649999999999991   F   F   F
  4.6650000000000000 28.7641499999999937 13.1099999999999994   F   F   F
  3.1099999999999999 33.0016499999999979 14.6649999999999991   F   F   F
  3.1099999999999999 30.5608499999999950 13.1099999999999994   F   F   F
  4.6650000000000000 26.3233499999999978 14.6649999999999991   F   F   F
  4.6650000000000000 22.0858499999999971 13.1099999999999994   F   F   F
  3.1099999999999999 17.8483499999999999 14.6649999999999991   F   F   F
  3.1099999999999999 22.8485999999999976 13.1099999999999994   F   F   F
  4.6650000000000000 27.0860999999999947 14.6649999999999991   F   F   F
  4.6650000000000000 31.3235999999999919 13.1099999999999994   F   F   F
  3.1099999999999999 18.6111000000000004 14.6649999999999991   F   F   F
  3.1099999999999999 28.0013999999999932 13.1099999999999994   F   F   F
  4.6650000000000000 23.7638999999999996 14.6649999999999991   F   F   F
  4.6650000000000000 19.5263999999999989 13.1099999999999994   F   F   F
  3.1099999999999999 32.2388999999999939 14.6649999999999991   F   F   F
  3.1099999999999999 20.2891499999999994 16.2199999999999989   T   T   T
  4.6650000000000000 24.5266499999999965 17.7749999999999986   T   T   T
  4.6650000000000000 28.7641499999999937 16.2199999999999989   T   T   T
  3.1099999999999999 33.0016499999999979 17.7749999999999986   T   T   T
  3.1099999999999999 30.5608499999999950 16.2199999999999989   T   T   T
  4.6650000000000000 26.3233499999999978 17.7749999999999986   T   T   T
  4.6650000000000000 22.0858499999999971 16.2199999999999989   T   T   T
  3.1099999999999999 17.8483499999999999 17.7749999999999986   T   T   T
  3.1099999999999999 22.8485999999999976 16.2199999999999989   T   T   T
  4.6650000000000000 27.0860999999999947 17.7749999999999986   T   T   T
  4.6650000000000000 31.3235999999999919 16.2199999999999989   T   T   T
  3.1099999999999999 18.6111000000000004 17.7749999999999986   T   T   T
  3.1099999999999999 28.0013999999999932 16.2199999999999989   T   T   T
  4.6650000000000000 23.7638999999999996 17.7749999999999986   T   T   T
  4.6650000000000000 19.5263999999999989 16.2199999999999989   T   T   T
  3.1099999999999999 32.2388999999999939 17.7749999999999986   T   T   T
  3.1099999999999999 20.2891499999999994 19.3299999999999983   T   T   T
  4.6650000000000000 24.5266499999999965 20.8849999999999980   T   T   T
  4.6650000000000000 28.7641499999999937 19.3299999999999983   T   T   T
  3.1099999999999999 33.0016499999999979 20.8849999999999980   T   T   T
  3.1099999999999999 30.5608499999999950 19.3299999999999983   T   T   T
  4.6650000000000000 26.3233499999999978 20.8849999999999980   T   T   T
  4.6650000000000000 22.0858499999999971 19.3299999999999983   T   T   T
  3.1099999999999999 17.8483499999999999 20.8849999999999980   T   T   T
  3.1099999999999999 22.8485999999999976 19.3299999999999983   T   T   T
  4.6650000000000000 27.0860999999999947 20.8849999999999980   T   T   T
  4.6650000000000000 31.3235999999999919 19.3299999999999983   T   T   T
  3.1099999999999999 18.6111000000000004 20.8849999999999980   T   T   T
  3.1099999999999999 28.0013999999999932 19.3299999999999983   T   T   T
  4.6650000000000000 23.7638999999999996 20.8849999999999980   T   T   T
  4.6650000000000000 19.5263999999999989 19.3299999999999983   T   T   T
  3.1099999999999999 32.2388999999999939 20.8849999999999980   T   T   T
  3.1099999999999999 37.2391499999999951 10.0000000000000000   F   F   F
  4.6650000000000000 41.4766499999999994 11.5549999999999997   F   F   F
  4.6650000000000000 45.7141499999999894 10.0000000000000000   F   F   F
  3.1099999999999999 49.9516499999999937 11.5549999999999997   F   F   F