Ni Mo C  Mo C  Mo C  Mo C  Mo C  Mo C  Mo C  Mo C  Au
 1.0000000000000000
     7.4670476093299420    0.0000000000000000    0.0000000000000000
     0.0000000000000000    7.4670476093299420    0.0000000000000000
     0.0000000000000000    0.0000000000000000   31.7610000000000028
 Ni  Mo  C   Mo  C   Mo  C   Mo  C   Mo  C   Mo  C   Mo  C   Mo  C   Au 
  36   4   2   4   2   4   2   4   2   4   2   4   2   4   2   4   2   4
Selective dynamics
Cartesian
  1.2445079348883237  1.2445079348883237  8.0000000000000000   F   F   F
  3.7335238046649710  1.2445079348883237  8.0000000000000000   F   F   F
  6.2225396744416184  1.2445079348883237  8.0000000000000000   F   F   F
  1.2445079348883237  3.7335238046649710  8.0000000000000000   F   F   F
  3.7335238046649710  3.7335238046649710  8.0000000000000000   F   F   F
  6.2225396744416184  3.7335238046649710  8.0000000000000000   F   F   F
  1.2445079348883237  6.2225396744416184  8.0000000000000000   F   F   F
  3.7335238046649710  6.2225396744416184  8.0000000000000000   F   F   F
  6.2225396744416184  6.2225396744416184  8.0000000000000000   F   F   F
  0.0000000000000000  0.0000000000000000  9.7599999999999998   F   F   F
  2.4890158697766473  0.0000000000000000  9.7599999999999998   F   F   F
  4.9780317395532947  0.0000000000000000  9.7599999999999998   F   F   F
  0.0000000000000000  2.4890158697766473  9.7599999999999998   F   F   F
  2.4890158697766473  2.4890158697766473  9.7599999999999998   F   F   F
  4.9780317395532947  2.4890158697766473  9.7599999999999998   F   F   F
  0.0000000000000000  4.9780317395532947  9.7599999999999998   F   F   F
  2.4890158697766473  4.9780317395532947  9.7599999999999998   F   F   F
  4.9780317395532947  4.9780317395532947  9.7599999999999998   F   F   F
  1.2445079348883237  1.2445079348883237 11.5199999999999996   T   T   T
  3.7335238046649710  1.2445079348883237 11.5199999999999996   T   T   T
  6.2225396744416184  1.2445079348883237 11.5199999999999996   T   T   T
  1.2445079348883237  3.7335238046649710 11.5199999999999996   T   T   T
  3.7335238046649710  3.7335238046649710 11.5199999999999996   T   T   T
  6.2225396744416184  3.7335238046649710 11.5199999999999996   T   T   T
  1.2445079348883237  6.2225396744416184 11.5199999999999996   T   T   T
  3.7335238046649710  6.2225396744416184 11.5199999999999996   T   T   T
  6.2225396744416184  6.2225396744416184 11.5199999999999996   T   T   T
  0.0000000000000000  0.0000000000000000 13.2800000000000011   T   T   T
  2.4890158697766473  0.0000000000000000 13.2800000000000011   T   T   T
  4.9780317395532947  0.0000000000000000 13.2800000000000011   T   T   T
  0.0000000000000000  2.4890158697766473 13.2800000000000011   T   T   T
  2.4890158697766473  2.4890158697766473 13.2800000000000011   T   T   T
  4.9780317395532947  2.4890158697766473 13.2800000000000011   T   T   T
  0.0000000000000000  4.9780317395532947 13.2800000000000011   T   T   T
  2.4890158697766473  4.9780317395532947 13.2800000000000011   T   T   T
  4.9780317395532947  4.9780317395532947 13.2800000000000011   T   T   T
  0.7244400000000000  0.4163200000000001 16.6630000000000003   T   T   T
  5.3125600000000004  4.7876800000000008 19.0289999999999999   T   T   T
  3.7429399999999999  2.1856799999999996 16.6630000000000003   T   T   T
  2.2940600000000000  3.0183199999999997 19.0289999999999999   T   T   T
  2.1733199999999999  1.3009999999999999 15.4800000000000004   T   T   T
  3.8636800000000000  3.9030000000000005 17.8460000000000001   T   T   T
  0.7244400000000000  0.4163200000000001 21.3949999999999996   T   T   T
  5.3125600000000004  4.7876800000000008 23.7610000000000028   T   T   T
  3.7429399999999999  2.1856799999999996 21.3949999999999996   T   T   T
  2.2940600000000000  3.0183199999999997 23.7610000000000028   T   T   T
  2.1733199999999999  1.3009999999999999 20.2119999999999997   T   T   T
  3.8636800000000000  3.9030000000000005 22.5780000000000030   T   T   T
  0.7244400000000000  5.6203199999999995 16.6630000000000003   T   T   T
  5.3125600000000004  9.9916800000000006 19.0289999999999999   T   T   T
  3.7429399999999999  7.3896799999999994 16.6630000000000003   T   T   T
  2.2940600000000000  8.2223199999999999 19.0289999999999999   T   T   T
  2.1733199999999999  6.5049999999999999 15.4800000000000004   T   T   T
  3.8636800000000000  9.1069999999999993 17.8460000000000001   T   T   T
  0.7244400000000000  5.6203199999999995 21.3949999999999996   T   T   T
  5.3125600000000004  9.9916800000000006 23.7610000000000028   T   T   T
  3.7429399999999999  7.3896799999999994 21.3949999999999996   T   T   T
  2.2940600000000000  8.2223199999999999 23.7610000000000028   T   T   T
  2.1733199999999999  6.5049999999999999 20.2119999999999997   T   T   T
  3.8636800000000000  9.1069999999999993 22.5780000000000030   T   T   T
  6.7614400000000003  0.4163200000000001 16.6630000000000003   T   T   T
 11.3495600000000003  4.7876800000000008 19.0289999999999999   T   T   T
  9.7799399999999999  2.1856799999999996 16.6630000000000003   T   T   T
  8.3310600000000008  3.0183199999999997 19.0289999999999999   T   T   T
  8.2103199999999994  1.3009999999999999 15.4800000000000004   T   T   T
  9.9006799999999995  3.9030000000000005 17.8460000000000001   T   T   T
  6.7614400000000003  0.4163200000000001 21.3949999999999996   T   T   T
 11.3495600000000003  4.7876800000000008 23.7610000000000028   T   T   T
  9.7799399999999999  2.1856799999999996 21.3949999999999996   T   T   T
  8.3310600000000008  3.0183199999999997 23.7610000000000028   T   T   T
  8.2103199999999994  1.3009999999999999 20.2119999999999997   T   T   T
  9.9006799999999995  3.9030000000000005 22.5780000000000030   T   T   T
  6.7614400000000003  5.6203199999999995 16.6630000000000003   T   T   T
 11.3495600000000003  9.9916800000000006 19.0289999999999999   T   T   T
  9.7799399999999999  7.3896799999999994 16.6630000000000003   T   T   T
  8.3310600000000008  8.2223199999999999 19.0289999999999999   T   T   T
  8.2103199999999994  6.5049999999999999 15.4800000000000004   T   T   T
  9.9006799999999995  9.1069999999999993 17.8460000000000001   T   T   T
  6.7614400000000003  5.6203199999999995 21.3949999999999996   T   T   T
 11.3495600000000003  9.9916800000000006 23.7610000000000028   T   T   T
  9.7799399999999999  7.3896799999999994 21.3949999999999996   T   T   T
  8.3310600000000008  8.2223199999999999 23.7610000000000028   T   T   T
  8.2103199999999994  6.5049999999999999 20.2119999999999997   T   T   T
  9.9006799999999995  9.1069999999999993 22.5780000000000030   T   T   T
  3.5831156445232031  3.1071156445232031 25.5610000000000035   T   T   T
  3.5831156445232031  5.5071156445232035 25.5610000000000035   T   T   T
  5.9831156445232034  3.1071156445232031 25.5610000000000035   T   T   T
  5.9831156445232034  5.5071156445232035 25.5610000000000035   T   T   T
