Mo Se Mo Se Mo Se Mo Se
 1.0000000000000000
     6.5780000000000003    0.0000000000000000    0.0000000000000000
    -3.2890000000000001    5.6967151060940378    0.0000000000000000
     0.0000000000000000    0.0000000000000000   19.1188000000000038
 Mo  Se  Mo  Se  Mo  Se  Mo  Se 
   1   2   1   2   1   2   1   2
Selective dynamics
Cartesian
  0.0000000000000000  0.0000000000000000  9.5594000000000001   T   T   T
  0.0000000000000001  1.8989050353646793 11.1188000000000002   T   T   T
  1.6445000000000001  0.9494525176823396  8.0000000000000000   F   F   F
 -1.6445000000000001  2.8483575530470189  9.5594000000000001   T   T   T
 -1.6445000000000001  4.7472625884116981 11.1188000000000002   T   T   T
  0.0000000000000000  3.7978100707293585  8.0000000000000000   F   F   F
  3.2890000000000001  0.0000000000000000  9.5594000000000001   T   T   T
  3.2890000000000001  1.8989050353646793 11.1188000000000002   T   T   T
  4.9335000000000004  0.9494525176823396  8.0000000000000000   F   F   F
  1.6445000000000001  2.8483575530470189  9.5594000000000001   T   T   T
  1.6445000000000001  4.7472625884116981 11.1188000000000002   T   T   T
  3.2890000000000001  3.7978100707293585  8.0000000000000000   F   F   F
