Mo B  Mo B  Mo B  Mo B  Mo B  Mo B  Mo B  Mo B  Mo B  Mo B  Mo B  Mo B 
 1.0000000000000000
    33.1050000000000040    0.0000000000000000    0.0000000000000000
     0.0000000000000000    6.2199999999999998    0.0000000000000000
     0.0000000000000000    0.0000000000000000   31.1533000000000015
 Mo  B   Mo  B   Mo  B   Mo  B   Mo  B   Mo  B   Mo  B   Mo  B   Mo  B   Mo  B   Mo  B   Mo  B  
   8   8   8   8   8   8   8   8   8   8   8   8   8   8   8   8   8   8   8   8   8   8   8   8
Selective dynamics
Cartesian
  8.0000000000000018  0.0000000000000000 10.4407999999999994   F   F   F
  9.5550000000000015  1.5549999999999999 14.6783000000000001   F   F   F
  8.0000000000000018  1.5549999999999999 18.9157999999999973   T   T   T
  9.5550000000000015  0.0000000000000000 23.1532999999999980   T   T   T
  8.0000000000000018  0.0000000000000000 20.7124999999999986   T   T   T
  9.5550000000000015  1.5549999999999999 16.4750000000000014   T   T   T
  8.0000000000000018  1.5549999999999999 12.2374999999999989   F   F   F
  9.5550000000000015  0.0000000000000000  7.9999999999999991   F   F   F
  8.0000000000000018  0.0000000000000000 13.0002499999999976   F   F   F
  9.5550000000000015  1.5549999999999999 17.2377499999999984   T   T   T
  8.0000000000000018  1.5549999999999999 21.4752499999999991   T   T   T
  9.5550000000000015  0.0000000000000000  8.7627499999999987   F   F   F
  8.0000000000000018  0.0000000000000000 18.1530500000000004   T   T   T
  9.5550000000000015  1.5549999999999999 13.9155499999999996   F   F   F
  8.0000000000000018  1.5549999999999999  9.6780499999999989   F   F   F
  9.5550000000000015  0.0000000000000000 22.3905499999999975   T   T   T
  8.0000000000000018  3.1099999999999999 10.4407999999999994   F   F   F
  9.5550000000000015  4.6650000000000000 14.6783000000000001   F   F   F
  8.0000000000000018  4.6650000000000000 18.9157999999999973   T   T   T
  9.5550000000000015  3.1099999999999999 23.1532999999999980   T   T   T
  8.0000000000000018  3.1099999999999999 20.7124999999999986   T   T   T
  9.5550000000000015  4.6650000000000000 16.4750000000000014   T   T   T
  8.0000000000000018  4.6650000000000000 12.2374999999999989   F   F   F
  9.5550000000000015  3.1099999999999999  7.9999999999999991   F   F   F
  8.0000000000000018  3.1099999999999999 13.0002499999999976   F   F   F
  9.5550000000000015  4.6650000000000000 17.2377499999999984   T   T   T
  8.0000000000000018  4.6650000000000000 21.4752499999999991   T   T   T
  9.5550000000000015  3.1099999999999999  8.7627499999999987   F   F   F
  8.0000000000000018  3.1099999999999999 18.1530500000000004   T   T   T
  9.5550000000000015  4.6650000000000000 13.9155499999999996   F   F   F
  8.0000000000000018  4.6650000000000000  9.6780499999999989   F   F   F
  9.5550000000000015  3.1099999999999999 22.3905499999999975   T   T   T
 11.1100000000000012  0.0000000000000000 10.4407999999999994   F   F   F
 12.6650000000000027  1.5549999999999999 14.6783000000000001   F   F   F
 11.1100000000000012  1.5549999999999999 18.9157999999999973   T   T   T
 12.6650000000000027  0.0000000000000000 23.1532999999999980   T   T   T
 11.1100000000000012  0.0000000000000000 20.7124999999999986   T   T   T
 12.6650000000000027  1.5549999999999999 16.4750000000000014   T   T   T
 11.1100000000000012  1.5549999999999999 12.2374999999999989   F   F   F
 12.6650000000000027  0.0000000000000000  7.9999999999999991   F   F   F
 11.1100000000000012  0.0000000000000000 13.0002499999999976   F   F   F
 12.6650000000000027  1.5549999999999999 17.2377499999999984   T   T   T
 11.1100000000000012  1.5549999999999999 21.4752499999999991   T   T   T
 12.6650000000000027  0.0000000000000000  8.7627499999999987   F   F   F
 11.1100000000000012  0.0000000000000000 18.1530500000000004   T   T   T
 12.6650000000000027  1.5549999999999999 13.9155499999999996   F   F   F
 11.1100000000000012  1.5549999999999999  9.6780499999999989   F   F   F
 12.6650000000000027  0.0000000000000000 22.3905499999999975   T   T   T
 11.1100000000000012  3.1099999999999999 10.4407999999999994   F   F   F
 12.6650000000000027  4.6650000000000000 14.6783000000000001   F   F   F
 11.1100000000000012  4.6650000000000000 18.9157999999999973   T   T   T
 12.6650000000000027  3.1099999999999999 23.1532999999999980   T   T   T
 11.1100000000000012  3.1099999999999999 20.7124999999999986   T   T   T
 12.6650000000000027  4.6650000000000000 16.4750000000000014   T   T   T
 11.1100000000000012  4.6650000000000000 12.2374999999999989   F   F   F
 12.6650000000000027  3.1099999999999999  7.9999999999999991   F   F   F
 11.1100000000000012  3.1099999999999999 13.0002499999999976   F   F   F
 12.6650000000000027  4.6650000000000000 17.2377499999999984   T   T   T
 11.1100000000000012  4.6650000000000000 21.4752499999999991   T   T   T
 12.6650000000000027  3.1099999999999999  8.7627499999999987   F   F   F
 11.1100000000000012  3.1099999999999999 18.1530500000000004   T   T   T
 12.6650000000000027  4.6650000000000000 13.9155499999999996   F   F   F
 11.1100000000000012  4.6650000000000000  9.6780499999999989   F   F   F
 12.6650000000000027  3.1099999999999999 22.3905499999999975   T   T   T
 14.2200000000000024  0.0000000000000000 10.4407999999999994   F   F   F
 15.7750000000000021  1.5549999999999999 14.6783000000000001   F   F   F
 14.2200000000000024  1.5549999999999999 18.9157999999999973   T   T   T
 15.7750000000000021  0.0000000000000000 23.1532999999999980   T   T   T
 14.2200000000000024  0.0000000000000000 20.7124999999999986   T   T   T
 15.7750000000000021  1.5549999999999999 16.4750000000000014   T   T   T
 14.2200000000000024  1.5549999999999999 12.2374999999999989   F   F   F
 15.7750000000000021  0.0000000000000000  7.9999999999999991   F   F   F
 14.2200000000000024  0.0000000000000000 13.0002499999999976   F   F   F
 15.7750000000000021  1.5549999999999999 17.2377499999999984   T   T   T
 14.2200000000000024  1.5549999999999999 21.4752499999999991   T   T   T
 15.7750000000000021  0.0000000000000000  8.7627499999999987   F   F   F
 14.2200000000000024  0.0000000000000000 18.1530500000000004   T   T   T
 15.7750000000000021  1.5549999999999999 13.9155499999999996   F   F   F
 14.2200000000000024  1.5549999999999999  9.6780499999999989   F   F   F
 15.7750000000000021  0.0000000000000000 22.3905499999999975   T   T   T
 14.2200000000000024  3.1099999999999999 10.4407999999999994   F   F   F
 15.7750000000000021  4.6650000000000000 14.6783000000000001   F   F   F
 14.2200000000000024  4.6650000000000000 18.9157999999999973   T   T   T
 15.7750000000000021  3.1099999999999999 23.1532999999999980   T   T   T
 14.2200000000000024  3.1099999999999999 20.7124999999999986   T   T   T
 15.7750000000000021  4.6650000000000000 16.4750000000000014   T   T   T
 14.2200000000000024  4.6650000000000000 12.2374999999999989   F   F   F
 15.7750000000000021  3.1099999999999999  7.9999999999999991   F   F   F
 14.2200000000000024  3.1099999999999999 13.0002499999999976   F   F   F
 15.7750000000000021  4.6650000000000000 17.2377499999999984   T   T   T
 14.2200000000000024  4.6650000000000000 21.4752499999999991   T   T   T
 15.7750000000000021  3.1099999999999999  8.7627499999999987   F   F   F
 14.2200000000000024  3.1099999999999999 18.1530500000000004   T   T   T
 15.7750000000000021  4.6650000000000000 13.9155499999999996   F   F   F
 14.2200000000000024  4.6650000000000000  9.6780499999999989   F   F   F
 15.7750000000000021  3.1099999999999999 22.3905499999999975   T   T   T
 17.3300000000000018  0.0000000000000000 10.4407999999999994   F   F   F
 18.8850000000000016  1.5549999999999999 14.6783000000000001   F   F   F
 17.3300000000000018  1.5549999999999999 18.9157999999999973   T   T   T
 18.8850000000000016  0.0000000000000000 23.1532999999999980   T   T   T
 17.3300000000000018  0.0000000000000000 20.7124999999999986   T   T   T
 18.8850000000000016  1.5549999999999999 16.4750000000000014   T   T   T
 17.3300000000000018  1.5549999999999999 12.2374999999999989   F   F   F
 18.8850000000000016  0.0000000000000000  7.9999999999999991   F   F   F
 17.3300000000000018  0.0000000000000000 13.0002499999999976   F   F   F
 18.8850000000000016  1.5549999999999999 17.2377499999999984   T   T   T
 17.3300000000000018  1.5549999999999999 21.4752499999999991   T   T   T
 18.8850000000000016  0.0000000000000000  8.7627499999999987   F   F   F
 17.3300000000000018  0.0000000000000000 18.1530500000000004   T   T   T
 18.8850000000000016  1.5549999999999999 13.9155499999999996   F   F   F
 17.3300000000000018  1.5549999999999999  9.6780499999999989   F   F   F
 18.8850000000000016  0.0000000000000000 22.3905499999999975   T   T   T
 17.3300000000000018  3.1099999999999999 10.4407999999999994   F   F   F
 18.8850000000000016  4.6650000000000000 14.6783000000000001   F   F   F
 17.3300000000000018  4.6650000000000000 18.9157999999999973   T   T   T
 18.8850000000000016  3.1099999999999999 23.1532999999999980   T   T   T
 17.3300000000000018  3.1099999999999999 20.7124999999999986   T   T   T
 18.8850000000000016  4.6650000000000000 16.4750000000000014   T   T   T
 17.3300000000000018  4.6650000000000000 12.2374999999999989   F   F   F
 18.8850000000000016  3.1099999999999999  7.9999999999999991   F   F   F
 17.3300000000000018  3.1099999999999999 13.0002499999999976   F   F   F
 18.8850000000000016  4.6650000000000000 17.2377499999999984   T   T   T
 17.3300000000000018  4.6650000000000000 21.4752499999999991   T   T   T
 18.8850000000000016  3.1099999999999999  8.7627499999999987   F   F   F
 17.3300000000000018  3.1099999999999999 18.1530500000000004   T   T   T
 18.8850000000000016  4.6650000000000000 13.9155499999999996   F   F   F
 17.3300000000000018  4.6650000000000000  9.6780499999999989   F   F   F
 18.8850000000000016  3.1099999999999999 22.3905499999999975   T   T   T
 20.4400000000000013  0.0000000000000000 10.4407999999999994   F   F   F
 21.9950000000000010  1.5549999999999999 14.6783000000000001   F   F   F
 20.4400000000000013  1.5549999999999999 18.9157999999999973   T   T   T
 21.9950000000000010  0.0000000000000000 23.1532999999999980   T   T   T
 20.4400000000000013  0.0000000000000000 20.7124999999999986   T   T   T
 21.9950000000000010  1.5549999999999999 16.4750000000000014   T   T   T
 20.4400000000000013  1.5549999999999999 12.2374999999999989   F   F   F
 21.9950000000000010  0.0000000000000000  7.9999999999999991   F   F   F
 20.4400000000000013  0.0000000000000000 13.0002499999999976   F   F   F
 21.9950000000000010  1.5549999999999999 17.2377499999999984   T   T   T
 20.4400000000000013  1.5549999999999999 21.4752499999999991   T   T   T
 21.9950000000000010  0.0000000000000000  8.7627499999999987   F   F   F
 20.4400000000000013  0.0000000000000000 18.1530500000000004   T   T   T
 21.9950000000000010  1.5549999999999999 13.9155499999999996   F   F   F
 20.4400000000000013  1.5549999999999999  9.6780499999999989   F   F   F
 21.9950000000000010  0.0000000000000000 22.3905499999999975   T   T   T
 20.4400000000000013  3.1099999999999999 10.4407999999999994   F   F   F
 21.9950000000000010  4.6650000000000000 14.6783000000000001   F   F   F
 20.4400000000000013  4.6650000000000000 18.9157999999999973   T   T   T
 21.9950000000000010  3.1099999999999999 23.1532999999999980   T   T   T
 20.4400000000000013  3.1099999999999999 20.7124999999999986   T   T   T
 21.9950000000000010  4.6650000000000000 16.4750000000000014   T   T   T
 20.4400000000000013  4.6650000000000000 12.2374999999999989   F   F   F
 21.9950000000000010  3.1099999999999999  7.9999999999999991   F   F   F
 20.4400000000000013  3.1099999999999999 13.0002499999999976   F   F   F
 21.9950000000000010  4.6650000000000000 17.2377499999999984   T   T   T
 20.4400000000000013  4.6650000000000000 21.4752499999999991   T   T   T
 21.9950000000000010  3.1099999999999999  8.7627499999999987   F   F   F
 20.4400000000000013  3.1099999999999999 18.1530500000000004   T   T   T
 21.9950000000000010  4.6650000000000000 13.9155499999999996   F   F   F
 20.4400000000000013  4.6650000000000000  9.6780499999999989   F   F   F
 21.9950000000000010  3.1099999999999999 22.3905499999999975   T   T   T
 23.5500000000000007  0.0000000000000000 10.4407999999999994   F   F   F
 25.1050000000000040  1.5549999999999999 14.6783000000000001   F   F   F
 23.5500000000000007  1.5549999999999999 18.9157999999999973   T   T   T
 25.1050000000000040  0.0000000000000000 23.1532999999999980   T   T   T
 23.5500000000000007  0.0000000000000000 20.7124999999999986   T   T   T
 25.1050000000000040  1.5549999999999999 16.4750000000000014   T   T   T
 23.5500000000000007  1.5549999999999999 12.2374999999999989   F   F   F
 25.1050000000000040  0.0000000000000000  7.9999999999999991   F   F   F
 23.5500000000000007  0.0000000000000000 13.0002499999999976   F   F   F
 25.1050000000000040  1.5549999999999999 17.2377499999999984   T   T   T
 23.5500000000000007  1.5549999999999999 21.4752499999999991   T   T   T
 25.1050000000000040  0.0000000000000000  8.7627499999999987   F   F   F
 23.5500000000000007  0.0000000000000000 18.1530500000000004   T   T   T
 25.1050000000000040  1.5549999999999999 13.9155499999999996   F   F   F
 23.5500000000000007  1.5549999999999999  9.6780499999999989   F   F   F
 25.1050000000000040  0.0000000000000000 22.3905499999999975   T   T   T
 23.5500000000000007  3.1099999999999999 10.4407999999999994   F   F   F
 25.1050000000000040  4.6650000000000000 14.6783000000000001   F   F   F
 23.5500000000000007  4.6650000000000000 18.9157999999999973   T   T   T
 25.1050000000000040  3.1099999999999999 23.1532999999999980   T   T   T
 23.5500000000000007  3.1099999999999999 20.7124999999999986   T   T   T
 25.1050000000000040  4.6650000000000000 16.4750000000000014   T   T   T
 23.5500000000000007  4.6650000000000000 12.2374999999999989   F   F   F
 25.1050000000000040  3.1099999999999999  7.9999999999999991   F   F   F
 23.5500000000000007  3.1099999999999999 13.0002499999999976   F   F   F
 25.1050000000000040  4.6650000000000000 17.2377499999999984   T   T   T
 23.5500000000000007  4.6650000000000000 21.4752499999999991   T   T   T
 25.1050000000000040  3.1099999999999999  8.7627499999999987   F   F   F
 23.5500000000000007  3.1099999999999999 18.1530500000000004   T   T   T
 25.1050000000000040  4.6650000000000000 13.9155499999999996   F   F   F
 23.5500000000000007  4.6650000000000000  9.6780499999999989   F   F   F
 25.1050000000000040  3.1099999999999999 22.3905499999999975   T   T   T
