O  Ti C  Ti C  Ti O  Ti C  Ti C  Ti O  Ti C  Ti C  Ti O  Ti C  Ti C  Ti O  Ti C  Ti C  Ti O  Ti C  Ti C  Ti O  Ti C  Ti C  Ti O  Ti C  Ti C  Ti O  Ti C  Ti C  Ti O  Ti C  Ti C  Ti O  Ti C  Ti C  Ti O  Ti C  Ti C  Ti O  Ti C  Ti C  Ti O  Ti C  Ti C  Ti O  Ti C  Ti C  Ti O  Ti C  Ti C  Ti O 
 1.0000000000000000
     6.1420000000000003    0.0000000000000000    0.0000000000000000
     0.0000000000000000   40.0000000000000000    0.0000000000000000
     0.0000000000000000    0.0000000000000000   25.7517347217473755
 O   Ti  C   Ti  C   Ti  O   Ti  C   Ti  C   Ti  O   Ti  C   Ti  C   Ti  O   Ti  C   Ti  C   Ti  O   Ti  C   Ti  C   Ti  O   Ti  C   Ti  C   Ti  O   Ti  C   Ti  C   Ti  O   Ti  C   Ti  C   Ti  O   Ti  C   Ti  C   Ti  O   Ti  C   Ti  C   Ti  O   Ti  C   Ti  C   Ti  O   Ti  C   Ti  C   Ti  O   Ti  C   Ti  C   Ti  O   Ti  C   Ti  C   Ti  O   Ti  C   Ti  C   Ti  O   Ti  C   Ti  C   Ti  O  
   1   1   1   1   1   1   2   1   1   1   1   1   2   1   1   1   1   1   2   1   1   1   1   1   2   1   1   1   1   1   2   1   1   1   1   1   2   1   1   1   1   1   2   1   1   1   1   1   2   1   1   1   1   1   2   1   1   1   1   1   2   1   1   1   1   1   2   1   1   1   1   1   2   1   1   1   1   1   2   1   1   1   1   1   2   1   1   1   1   1   2   1   1   1   1   1   1
Selective dynamics
Cartesian
  1.5355000000000001  7.0000000000000018  8.8865213383406712   F   F   F
  0.0000000000000000  8.0000000000000000  9.7730426766813405   F   F   F
  0.0000000000000000  9.0000000000000000  8.0000000000000000   F   F   F
  1.5355000000000001 10.0000000000000000  8.8865213383406712   F   F   F
  0.0000000000000000 11.0000000000000000  9.7730426766813405   F   F   F
  0.0000000000000000 12.0000000000000018  8.0000000000000000   F   F   F
  1.5355000000000001 13.0000000000000000  8.8865213383406712   F   F   F
  0.0000000000000003  7.0000000000000018 11.5460853533626810   F   F   F
  1.5355000000000001  8.0000000000000000 12.4326066917033522   F   F   F
  1.5355000000000005  9.0000000000000000 10.6595640150220117   F   F   F
  0.0000000000000003 10.0000000000000000 11.5460853533626810   F   F   F
  1.5355000000000005 11.0000000000000000 12.4326066917033522   F   F   F
  1.5355000000000005 12.0000000000000018 10.6595640150220117   F   F   F
  0.0000000000000003 13.0000000000000000 11.5460853533626810   F   F   F
  1.5355000000000008  7.0000000000000018 14.2056493683846945   T   T   T
  0.0000000000000003  8.0000000000000000 15.0921707067253639   T   T   T
  0.0000000000000007  9.0000000000000000 13.3191280300440233   T   T   T
  1.5355000000000008 10.0000000000000000 14.2056493683846945   T   T   T
  0.0000000000000003 11.0000000000000000 15.0921707067253639   T   T   T
  0.0000000000000007 12.0000000000000018 13.3191280300440233   T   T   T
  1.5355000000000008 13.0000000000000000 14.2056493683846945   T   T   T
  0.0000000000000007  7.0000000000000018 16.8652133834067044   T   T   T
  1.5355000000000008  8.0000000000000000 17.7517347217473755   T   T   T
  1.5355000000000008  9.0000000000000000 15.9786920450660332   T   T   T
  0.0000000000000007 10.0000000000000000 16.8652133834067044   T   T   T
  1.5355000000000008 11.0000000000000000 17.7517347217473755   T   T   T
  1.5355000000000008 12.0000000000000018 15.9786920450660332   T   T   T
  0.0000000000000007 13.0000000000000000 16.8652133834067044   T   T   T
  1.5355000000000001 27.0000000000000000  8.8865213383406712   F   F   F
  0.0000000000000000 28.0000000000000000  9.7730426766813405   F   F   F
  0.0000000000000000 29.0000000000000000  8.0000000000000000   F   F   F
  1.5355000000000001 30.0000000000000000  8.8865213383406712   F   F   F
  0.0000000000000000 31.0000000000000000  9.7730426766813405   F   F   F
  0.0000000000000000 32.0000000000000000  8.0000000000000000   F   F   F
  1.5355000000000001 33.0000000000000000  8.8865213383406712   F   F   F
  0.0000000000000003 27.0000000000000000 11.5460853533626810   F   F   F
  1.5355000000000001 28.0000000000000000 12.4326066917033522   F   F   F
  1.5355000000000005 29.0000000000000000 10.6595640150220117   F   F   F
  0.0000000000000003 30.0000000000000000 11.5460853533626810   F   F   F
  1.5355000000000005 31.0000000000000000 12.4326066917033522   F   F   F
  1.5355000000000005 32.0000000000000000 10.6595640150220117   F   F   F
  0.0000000000000003 33.0000000000000000 11.5460853533626810   F   F   F
  1.5355000000000008 27.0000000000000000 14.2056493683846945   T   T   T
  0.0000000000000003 28.0000000000000000 15.0921707067253639   T   T   T
  0.0000000000000007 29.0000000000000000 13.3191280300440233   T   T   T
  1.5355000000000008 30.0000000000000000 14.2056493683846945   T   T   T
  0.0000000000000003 31.0000000000000000 15.0921707067253639   T   T   T
  0.0000000000000007 32.0000000000000000 13.3191280300440233   T   T   T
  1.5355000000000008 33.0000000000000000 14.2056493683846945   T   T   T
  0.0000000000000007 27.0000000000000000 16.8652133834067044   T   T   T
  1.5355000000000008 28.0000000000000000 17.7517347217473755   T   T   T
  1.5355000000000008 29.0000000000000000 15.9786920450660332   T   T   T
  0.0000000000000007 30.0000000000000000 16.8652133834067044   T   T   T
  1.5355000000000008 31.0000000000000000 17.7517347217473755   T   T   T
  1.5355000000000008 32.0000000000000000 15.9786920450660332   T   T   T
  0.0000000000000007 33.0000000000000000 16.8652133834067044   T   T   T
  4.6065000000000005  7.0000000000000018  8.8865213383406712   F   F   F
  3.0710000000000002  8.0000000000000000  9.7730426766813405   F   F   F
  3.0710000000000002  9.0000000000000000  8.0000000000000000   F   F   F
  4.6065000000000005 10.0000000000000000  8.8865213383406712   F   F   F
  3.0710000000000002 11.0000000000000000  9.7730426766813405   F   F   F
  3.0710000000000002 12.0000000000000018  8.0000000000000000   F   F   F
  4.6065000000000005 13.0000000000000000  8.8865213383406712   F   F   F
  3.0710000000000006  7.0000000000000018 11.5460853533626810   F   F   F
  4.6065000000000005  8.0000000000000000 12.4326066917033522   F   F   F
  4.6065000000000005  9.0000000000000000 10.6595640150220117   F   F   F
  3.0710000000000006 10.0000000000000000 11.5460853533626810   F   F   F
  4.6065000000000005 11.0000000000000000 12.4326066917033522   F   F   F
  4.6065000000000005 12.0000000000000018 10.6595640150220117   F   F   F
  3.0710000000000006 13.0000000000000000 11.5460853533626810   F   F   F
  4.6065000000000005  7.0000000000000018 14.2056493683846945   T   T   T
  3.0710000000000006  8.0000000000000000 15.0921707067253639   T   T   T
  3.0710000000000011  9.0000000000000000 13.3191280300440233   T   T   T
  4.6065000000000005 10.0000000000000000 14.2056493683846945   T   T   T
  3.0710000000000006 11.0000000000000000 15.0921707067253639   T   T   T
  3.0710000000000011 12.0000000000000018 13.3191280300440233   T   T   T
  4.6065000000000005 13.0000000000000000 14.2056493683846945   T   T   T
  3.0710000000000011  7.0000000000000018 16.8652133834067044   T   T   T
  4.6065000000000005  8.0000000000000000 17.7517347217473755   T   T   T
  4.6065000000000005  9.0000000000000000 15.9786920450660332   T   T   T
  3.0710000000000011 10.0000000000000000 16.8652133834067044   T   T   T
  4.6065000000000005 11.0000000000000000 17.7517347217473755   T   T   T
  4.6065000000000005 12.0000000000000018 15.9786920450660332   T   T   T
  3.0710000000000011 13.0000000000000000 16.8652133834067044   T   T   T
  4.6065000000000005 27.0000000000000000  8.8865213383406712   F   F   F
  3.0710000000000002 28.0000000000000000  9.7730426766813405   F   F   F
  3.0710000000000002 29.0000000000000000  8.0000000000000000   F   F   F
  4.6065000000000005 30.0000000000000000  8.8865213383406712   F   F   F
  3.0710000000000002 31.0000000000000000  9.7730426766813405   F   F   F
  3.0710000000000002 32.0000000000000000  8.0000000000000000   F   F   F
  4.6065000000000005 33.0000000000000000  8.8865213383406712   F   F   F
  3.0710000000000006 27.0000000000000000 11.5460853533626810   F   F   F
  4.6065000000000005 28.0000000000000000 12.4326066917033522   F   F   F
  4.6065000000000005 29.0000000000000000 10.6595640150220117   F   F   F
  3.0710000000000006 30.0000000000000000 11.5460853533626810   F   F   F
  4.6065000000000005 31.0000000000000000 12.4326066917033522   F   F   F
  4.6065000000000005 32.0000000000000000 10.6595640150220117   F   F   F
  3.0710000000000006 33.0000000000000000 11.5460853533626810   F   F   F
  4.6065000000000005 27.0000000000000000 14.2056493683846945   T   T   T
  3.0710000000000006 28.0000000000000000 15.0921707067253639   T   T   T
  3.0710000000000011 29.0000000000000000 13.3191280300440233   T   T   T
  4.6065000000000005 30.0000000000000000 14.2056493683846945   T   T   T
  3.0710000000000006 31.0000000000000000 15.0921707067253639   T   T   T
  3.0710000000000011 32.0000000000000000 13.3191280300440233   T   T   T
  4.6065000000000005 33.0000000000000000 14.2056493683846945   T   T   T
  3.0710000000000011 27.0000000000000000 16.8652133834067044   T   T   T
  4.6065000000000005 28.0000000000000000 17.7517347217473755   T   T   T
  4.6065000000000005 29.0000000000000000 15.9786920450660332   T   T   T
  3.0710000000000011 30.0000000000000000 16.8652133834067044   T   T   T
  4.6065000000000005 31.0000000000000000 17.7517347217473755   T   T   T
  4.6065000000000005 32.0000000000000000 15.9786920450660332   T   T   T
  3.0710000000000011 33.0000000000000000 16.8652133834067044   T   T   T
