Mo P  Mo P  Mo P  Mo P  Mo P  Mo P  Mo P  Mo P  Mo P  Mo P  Mo P  Mo P  Mo P  Mo P  Mo P  Mo P 
 1.0000000000000000
     9.1641038841776563    0.0000000000000000    0.0000000000000000
     0.0000000000000000    6.4800000000000004    0.0000000000000000
     0.0000000000000000    0.0000000000000000   22.8730779131332440
 Mo  P   Mo  P   Mo  P   Mo  P   Mo  P   Mo  P   Mo  P   Mo  P   Mo  P   Mo  P   Mo  P   Mo  P   Mo  P   Mo  P   Mo  P   Mo  P  
   1   1   1   1   1   1   1   1   1   1   1   1   1   1   1   1   1   1   1   1   1   1   1   1   1   1   1   1   1   1   1   1
Selective dynamics
Cartesian
  0.0000000000000000  0.0000000000000000  8.0000000000000000   F   F   F
  2.2910259710444136  1.6200000000000001  8.0000000000000000   F   F   F
  2.2910259710444136  0.0000000000000000 10.2910259710444141   F   F   F
  4.5820519420888273  1.6200000000000001 10.2910259710444159   F   F   F
  4.5820519420888273  0.0000000000000000 12.5820519420888282   T   T   T
  2.2910259710444132  1.6200000000000001 12.5820519420888299   T   T   T
  2.2910259710444119  0.0000000000000000 14.8730779131332440   T   T   T
  4.5820519420888237  1.6200000000000001 14.8730779131332440   T   T   T
  0.0000000000000000  3.2400000000000002  8.0000000000000000   F   F   F
  2.2910259710444136  4.8600000000000003  8.0000000000000000   F   F   F
  2.2910259710444136  3.2400000000000002 10.2910259710444141   F   F   F
  4.5820519420888273  4.8600000000000003 10.2910259710444159   F   F   F
  4.5820519420888273  3.2400000000000002 12.5820519420888282   T   T   T
  2.2910259710444132  4.8600000000000003 12.5820519420888299   T   T   T
  2.2910259710444119  3.2400000000000002 14.8730779131332440   T   T   T
  4.5820519420888237  4.8600000000000003 14.8730779131332440   T   T   T
  4.5820519420888282  0.0000000000000000  8.0000000000000000   F   F   F
  6.8730779131332422  1.6200000000000001  8.0000000000000000   F   F   F
  6.8730779131332422  0.0000000000000000 10.2910259710444141   F   F   F
  9.1641038841776563  1.6200000000000001 10.2910259710444159   F   F   F
  9.1641038841776563  0.0000000000000000 12.5820519420888282   T   T   T
  6.8730779131332413  1.6200000000000001 12.5820519420888299   T   T   T
  6.8730779131332405  0.0000000000000000 14.8730779131332440   T   T   T
  9.1641038841776528  1.6200000000000001 14.8730779131332440   T   T   T
  4.5820519420888282  3.2400000000000002  8.0000000000000000   F   F   F
  6.8730779131332422  4.8600000000000003  8.0000000000000000   F   F   F
  6.8730779131332422  3.2400000000000002 10.2910259710444141   F   F   F
  9.1641038841776563  4.8600000000000003 10.2910259710444159   F   F   F
  9.1641038841776563  3.2400000000000002 12.5820519420888282   T   T   T
  6.8730779131332413  4.8600000000000003 12.5820519420888299   T   T   T
  6.8730779131332405  3.2400000000000002 14.8730779131332440   T   T   T
  9.1641038841776528  4.8600000000000003 14.8730779131332440   T   T   T
