C 
 1.0000000000000000
    31.5952086140680279    0.0000000000000000    0.0000000000000000
    -3.6899999999999999    6.3912674799291569    0.0000000000000000
     0.0000000000000000    0.0000000000000000   16.0000000000000000
 C  
  36
Selective dynamics
Cartesian
  9.2376043070340117  0.0000000000000000  8.0000000000000000   T   T   T
  9.2376043070340117  1.4202816622064793  8.0000000000000000   T   T   T
  8.0076043070340113  2.1304224933097191  8.0000000000000000   T   T   T
  8.0076043070340113  3.5507041555161987  8.0000000000000000   T   T   T
  6.7776043070340117  4.2608449866194382  8.0000000000000000   T   T   T
  6.7776043070340117  5.6811266488259173  8.0000000000000000   T   T   T
 11.6976043070340125  0.0000000000000000  8.0000000000000000   T   T   T
 11.6976043070340125  1.4202816622064793  8.0000000000000000   T   T   T
 10.4676043070340121  2.1304224933097191  8.0000000000000000   T   T   T
 10.4676043070340121  3.5507041555161987  8.0000000000000000   T   T   T
  9.2376043070340117  4.2608449866194382  8.0000000000000000   T   T   T
  9.2376043070340117  5.6811266488259173  8.0000000000000000   T   T   T
 14.1576043070340116  0.0000000000000000  8.0000000000000000   T   T   T
 14.1576043070340116  1.4202816622064793  8.0000000000000000   T   T   T
 12.9276043070340112  2.1304224933097191  8.0000000000000000   T   T   T
 12.9276043070340112  3.5507041555161987  8.0000000000000000   T   T   T
 11.6976043070340125  4.2608449866194382  8.0000000000000000   T   T   T
 11.6976043070340125  5.6811266488259173  8.0000000000000000   T   T   T
 16.6176043070340107  0.0000000000000000  8.0000000000000000   T   T   T
 16.6176043070340107  1.4202816622064793  8.0000000000000000   T   T   T
 15.3876043070340121  2.1304224933097191  8.0000000000000000   T   T   T
 15.3876043070340121  3.5507041555161987  8.0000000000000000   T   T   T
 14.1576043070340116  4.2608449866194382  8.0000000000000000   T   T   T
 14.1576043070340116  5.6811266488259173  8.0000000000000000   T   T   T
 19.0776043070340116  0.0000000000000000  8.0000000000000000   T   T   T
 19.0776043070340116  1.4202816622064793  8.0000000000000000   T   T   T
 17.8476043070340111  2.1304224933097191  8.0000000000000000   T   T   T
 17.8476043070340111  3.5507041555161987  8.0000000000000000   T   T   T
 16.6176043070340107  4.2608449866194382  8.0000000000000000   T   T   T
 16.6176043070340107  5.6811266488259173  8.0000000000000000   T   T   T
 21.5376043070340124  0.0000000000000000  8.0000000000000000   T   T   T
 21.5376043070340124  1.4202816622064793  8.0000000000000000   T   T   T
 20.3076043070340120  2.1304224933097191  8.0000000000000000   T   T   T
 20.3076043070340120  3.5507041555161987  8.0000000000000000   T   T   T
 19.0776043070340116  4.2608449866194382  8.0000000000000000   T   T   T
 19.0776043070340116  5.6811266488259173  8.0000000000000000   T   T   T
