Mo B  Mo B  Mo B  Mo B  Mo B  Mo B  Mo B  Mo B  Mo B  Mo B  Mo B  Mo B  Mo B  Mo B  Mo B  Mo B  Mo B  Mo B  Mo B  Mo B  Mo B  Mo B  Mo B  Mo B  Mo B  Mo B  Mo B  Mo B  Mo B  Mo B  Mo B  Mo B  Mo B  Mo B  Mo B  Mo B  Mo B  Mo B  Mo B  Mo B  Mo B  Mo B  Mo B  Mo B  Mo B  Mo B  Mo B  Mo B  Mo B  Mo B  Mo B  Mo B  Mo B  Mo B  Mo B  Mo B  Mo B  Mo B  Mo B  Mo B  Mo B  Mo B  Mo B  Mo B 
 1.0000000000000000
    17.5928167159213018    0.0000000000000000    0.0000000000000000
    -8.7964083579606509   68.3682440903669715    0.0000000000000000
     0.0000000000000000    0.0000000000000000   27.8640520885999798
 Mo  B   Mo  B   Mo  B   Mo  B   Mo  B   Mo  B   Mo  B   Mo  B   Mo  B   Mo  B   Mo  B   Mo  B   Mo  B   Mo  B   Mo  B   Mo  B   Mo  B   Mo  B   Mo  B   Mo  B   Mo  B   Mo  B   Mo  B   Mo  B   Mo  B   Mo  B   Mo  B   Mo  B   Mo  B   Mo  B   Mo  B   Mo  B   Mo  B   Mo  B   Mo  B   Mo  B   Mo  B   Mo  B   Mo  B   Mo  B   Mo  B   Mo  B   Mo  B   Mo  B   Mo  B   Mo  B   Mo  B   Mo  B   Mo  B   Mo  B   Mo  B   Mo  B   Mo  B   Mo  B   Mo  B   Mo  B   Mo  B   Mo  B   Mo  B   Mo  B   Mo  B   Mo  B   Mo  B   Mo  B  
   8   8   8   8   8   8   8   8   8   8   8   8   8   8   8   8   8   8   8   8   8   8   8   8   8   8   8   8   8   8   8   8   8   8   8   8   8   8   8   8   8   8   8   8   8   8   8   8   8   8   8   8   8   8   8   8   8   8   8   8   8   8   8   8   8   8   8   8   8   8   8   8   8   8   8   8   8   8   8   8   8   8   8   8   8   8   8   8   8   8   8   8   8   8   8   8   8   8   8   8   8   8   8   8   8   8   8   8   8   8   8   8   8   8   8   8   8   8   8   8   8   8   8   8   8   8   8   8
Selective dynamics
Cartesian
  2.1991020894901623 13.7806644376398300 10.0000000000000000   F   F   F
 -0.0000000000000003  9.5783845074978089 10.5452060516222943   F   F   F
  3.2986531342352432  5.2346339263439612 10.0000000000000000   F   F   F
  1.0995510447450809  1.0323539962019381 10.5452060516222943   F   F   F
  2.1991020894901623  3.5943378869755733 11.3215794691324447   F   F   F
 -0.0000000000000006  7.7966178171175953 10.7763734175101469   F   F   F
  1.0995510447450809 12.1403683982714465 11.3215794691324412   F   F   F
 -1.0995510447450823 16.3426483284134640 10.7763734175101469   F   F   F
  2.1991020894901627 11.2424873598340529 10.3293044551798658   F   F   F
 -0.0000000000000014  7.0402074296920318 10.8745105068021601   F   F   F
  3.2986531342352436  2.6964568485381815 10.3293044551798658   F   F   F
 -1.0995510447450823 15.5862379409878997 10.8745105068021601   F   F   F
  2.1991020894901618  6.1325149647813539 10.9922750139525753   F   F   F
 -0.0000000000000005 10.3347948949233714 10.4470689623302846   F   F   F
  1.0995510447450807 14.6785454760772236 10.9922750139525753   F   F   F
  1.0995510447450809  1.7887643836275005 10.4470689623302810   F   F   F
 -0.0000000000000018 14.0636057396634921 12.1808242064891772   F   F   F
  2.1991020894901618  9.8613258095214711 12.7260302581114750   F   F   F
  1.0995510447450803  5.5175752283676243 12.1808242064891772   F   F   F
  3.2986531342352428  1.3152952982256005 12.7260302581114750   F   F   F
 -0.0000000000000009  3.8772791889992355 13.5024036756216219   F   F   F
  2.1991020894901618  8.0795591191412566 12.9571976239993276   F   F   F
 -1.0995510447450827 12.4233097002951087 13.5024036756216219   F   F   F
  1.0995510447450798 16.6255896304371262 12.9571976239993241   F   F   F
 -0.0000000000000014 11.5254286618577151 12.5101286616690430   F   F   F
  2.1991020894901618  7.3231487317156949 13.0553347132913409   F   F   F
  1.0995510447450809  2.9793981505618441 12.5101286616690430   F   F   F
  1.0995510447450791 15.8691792430115601 13.0553347132913373   F   F   F
 -0.0000000000000019  6.4154562668050179 13.1730992204417561   F   F   F
  2.1991020894901618 10.6177361969470336 12.6278931688194618   F   F   F
 -1.0995510447450827 14.9614867781008858 13.1730992204417561   F   F   F
  3.2986531342352432  2.0717056856511631 12.6278931688194618   F   F   F
  2.1991020894901605 14.3465470416871526 14.3616484129783579   T   T   T
 -0.0000000000000022 10.1442671115451315 14.9068544646006522   T   T   T
  3.2986531342352441  5.8005165303912865 14.3616484129783579   T   T   T
  1.0995510447450789  1.5982366002492625 14.9068544646006522   T   T   T
  2.1991020894901618  4.1602204910228977 15.6832278821107991   T   T   T
 -0.0000000000000012  8.3625004211649205 15.1380218304885048   T   T   T
  1.0995510447450800 12.7062510023187709 15.6832278821107991   T   T   T
 -1.0995510447450840 16.9085309324607884 15.1380218304885048   T   T   T
  2.1991020894901596 11.8083699638813791 14.6909528681582238   T   T   T
 -0.0000000000000021  7.6060900337393571 15.2361589197805181   T   T   T
  3.2986531342352414  3.2623394525855063 14.6909528681582238   T   T   T
 -1.0995510447450829 16.1521205450352241 15.2361589197805181   T   T   T
  2.1991020894901605  6.6983975688286801 15.3539234269309333   T   T   T
 -0.0000000000000015 10.9006774989706958 14.8087173753086390   T   T   T
  1.0995510447450787 15.2444280801245462 15.3539234269309333   T   T   T
  1.0995510447450798  2.3546469876748253 14.8087173753086390   T   T   T
 -0.0000000000000025 14.6294883437108165 16.5424726194675351   T   T   T
  2.1991020894901609 10.4272084135687955 17.0876786710898294   T   T   T
  1.0995510447450785  6.0834578324149478 16.5424726194675351   T   T   T
  3.2986531342352423  1.8811779022729251 17.0876786710898330   T   T   T
 -0.0000000000000007  4.4431617930465608 17.8640520885999763   T   T   T
  2.1991020894901601  8.6454417231885810 17.3188460369776855   T   T   T
 -1.0995510447450823 12.9891923043424349 17.8640520885999763   T   T   T
  3.2986531342352419  0.0994112118927064 17.3188460369776820   T   T   T
 -0.0000000000000013 12.0913112659050412 16.8717770746474010   T   T   T
  2.1991020894901614  7.8890313357630193 17.4169831262696988   T   T   T
  1.0995510447450783  3.5452807546091685 16.8717770746474010   T   T   T
  1.0995510447450789 16.4350618470588863 17.4169831262696952   T   T   T
 -0.0000000000000026  6.9813388708523414 17.5347476334201104   T   T   T
  2.1991020894901609 11.1836188009943580 16.9895415817978161   T   T   T
 -1.0995510447450836 15.5273693821482102 17.5347476334201104   T   T   T
  3.2986531342352423  2.6375882896984875 16.9895415817978161   T   T   T
 -0.0000000000000004 30.8727254602315710 10.0000000000000000   F   F   F
 -2.1991020894901632 26.6704455300895518 10.5452060516222943   F   F   F
  1.0995510447450805 22.3266949489357032 10.0000000000000000   F   F   F
 -1.0995510447450818 18.1244150187936803 10.5452060516222943   F   F   F
 -0.0000000000000004 20.6863989095673162 11.3215794691324447   F   F   F
 -2.1991020894901632 24.8886788397093390 10.7763734175101469   F   F   F
 -1.0995510447450818 29.2324294208631912 11.3215794691324412   F   F   F
 -3.2986531342352450 33.4347093510052105 10.7763734175101469   F   F   F
  0.0000000000000000 28.3345483824257940 10.3293044551798658   F   F   F
 -2.1991020894901641 24.1322684522837747 10.8745105068021601   F   F   F
  1.0995510447450809 19.7885178711299261 10.3293044551798658   F   F   F
 -3.2986531342352450 32.6782989635796426 10.8745105068021601   F   F   F
 -0.0000000000000009 23.2245759873730968 10.9922750139525753   F   F   F
 -2.1991020894901632 27.4268559175151125 10.4470689623302846   F   F   F
 -1.0995510447450820 31.7706064986689682 10.9922750139525753   F   F   F
 -1.0995510447450818 18.8808254062192447 10.4470689623302810   F   F   F
 -2.1991020894901645 31.1556667622552368 12.1808242064891772   F   F   F
 -0.0000000000000009 26.9533868321132140 12.7260302581114750   F   F   F
 -1.0995510447450825 22.6096362509593689 12.1808242064891772   F   F   F
  1.0995510447450800 18.4073563208173425 12.7260302581114750   F   F   F
 -2.1991020894901636 20.9693402115909784 13.5024036756216219   F   F   F
 -0.0000000000000009 25.1716201417330012 12.9571976239993276   F   F   F
 -3.2986531342352454 29.5153707228868498 13.5024036756216219   F   F   F
 -1.0995510447450829 33.7176506530288691 12.9571976239993241   F   F   F
 -2.1991020894901641 28.6174896844494597 12.5101286616690430   F   F   F
 -0.0000000000000009 24.4152097543074369 13.0553347132913409   F   F   F
 -1.0995510447450818 20.0714591731535883 12.5101286616690430   F   F   F
 -1.0995510447450836 32.9612402656033012 13.0553347132913373   F   F   F
 -2.1991020894901645 23.5075172893967590 13.1730992204417561   F   F   F
 -0.0000000000000009 27.7097972195387783 12.6278931688194618   F   F   F
 -3.2986531342352454 32.0535478006926269 13.1730992204417561   F   F   F
  1.0995510447450805 19.1637667082429068 12.6278931688194618   F   F   F
 -0.0000000000000022 31.4386080642788954 14.3616484129783579   T   T   T
 -2.1991020894901649 27.2363281341368761 14.9068544646006522   T   T   T
  1.0995510447450814 22.8925775529830275 14.3616484129783579   T   T   T
 -1.0995510447450838 18.6902976228410047 14.9068544646006522   T   T   T
 -0.0000000000000009 21.2522815136146406 15.6832278821107991   T   T   T
 -2.1991020894901641 25.4545614437566634 15.1380218304885048   T   T   T
 -1.0995510447450827 29.7983120249105156 15.6832278821107991   T   T   T
 -3.2986531342352468 34.0005919550525277 15.1380218304885048   T   T   T
 -0.0000000000000031 28.9004309864731219 14.6909528681582238   T   T   T
 -2.1991020894901649 24.6981510563310991 15.2361589197805181   T   T   T
  1.0995510447450787 20.3544004751772505 14.6909528681582238   T   T   T
 -3.2986531342352459 33.2441815676269670 15.2361589197805181   T   T   T
 -0.0000000000000022 23.7904585914204247 15.3539234269309333   T   T   T
 -2.1991020894901641 27.9927385215624369 14.8087173753086390   T   T   T
 -1.0995510447450840 32.3364891027162855 15.3539234269309333   T   T   T
 -1.0995510447450829 19.4467080102665690 14.8087173753086390   T   T   T
 -2.1991020894901654 31.7215493663025612 16.5424726194675351   T   T   T
 -0.0000000000000018 27.5192694361605383 17.0876786710898294   T   T   T
 -1.0995510447450842 23.1755188550066897 16.5424726194675351   T   T   T
  1.0995510447450796 18.9732389248646669 17.0876786710898330   T   T   T
 -2.1991020894901636 21.5352228156383028 17.8640520885999763   T   T   T
 -0.0000000000000027 25.7375027457803256 17.3188460369776855   T   T   T
 -3.2986531342352450 30.0812533269341777 17.8640520885999763   T   T   T
  1.0995510447450791 17.1914722344844506 17.3188460369776820   T   T   T
 -2.1991020894901641 29.1833722884967841 16.8717770746474010   T   T   T
 -0.0000000000000013 24.9810923583547613 17.4169831262696988   T   T   T
 -1.0995510447450845 20.6373417772009127 16.8717770746474010   T   T   T
 -1.0995510447450838 33.5271228696506256 17.4169831262696952   T   T   T
 -2.1991020894901654 24.0733998934440834 17.5347476334201104   T   T   T
 -0.0000000000000018 28.2756798235861027 16.9895415817978161   T   T   T
 -3.2986531342352463 32.6194304047399513 17.5347476334201104   T   T   T
  1.0995510447450796 19.7296493122902312 16.9895415817978161   T   T   T
 -2.1991020894901632 47.9647864828233139 10.0000000000000000   F   F   F
 -4.3982041789803255 43.7625065526812946 10.5452060516222943   F   F   F
 -1.0995510447450823 39.4187559715274460 10.0000000000000000   F   F   F
 -3.2986531342352445 35.2164760413854268 10.5452060516222943   F   F   F
 -2.1991020894901632 37.7784599321590591 11.3215794691324447   F   F   F
 -4.3982041789803263 41.9807398623010783 10.7763734175101469   F   F   F
 -3.2986531342352445 46.3244904434549341 11.3215794691324412   F   F   F
 -5.4977552237254077 50.5267703735969462 10.7763734175101469   F   F   F
 -2.1991020894901627 45.4266094050175369 10.3293044551798658   F   F   F
 -4.3982041789803272 41.2243294748755176 10.8745105068021601   F   F   F
 -1.0995510447450818 36.8805788937216690 10.3293044551798658   F   F   F
 -5.4977552237254077 49.7703599861713855 10.8745105068021601   F   F   F
 -2.1991020894901636 40.3166370099648361 10.9922750139525753   F   F   F
 -4.3982041789803263 44.5189169401068554 10.4470689623302846   F   F   F
 -3.2986531342352450 48.8626675212607111 10.9922750139525753   F   F   F
 -3.2986531342352445 35.9728864288109875 10.4470689623302810   F   F   F
 -4.3982041789803272 48.2477277848469797 12.1808242064891772   F   F   F
 -2.1991020894901636 44.0454478547049604 12.7260302581114750   F   F   F
 -3.2986531342352450 39.7016972735511118 12.1808242064891772   F   F   F
 -1.0995510447450827 35.4994173434090854 12.7260302581114750   F   F   F
 -4.3982041789803263 38.0614012341827248 13.5024036756216219   F   F   F
 -2.1991020894901636 42.2636811643247441 12.9571976239993276   F   F   F
 -5.4977552237254077 46.6074317454785927 13.5024036756216219   F   F   F
 -3.2986531342352459 50.8097116756206120 12.9571976239993241   F   F   F
 -4.3982041789803272 45.7095507070412026 12.5101286616690430   F   F   F
 -2.1991020894901636 41.5072707768991833 13.0553347132913409   F   F   F
 -3.2986531342352445 37.1635201957453276 12.5101286616690430   F   F   F
 -3.2986531342352463 50.0533012881950441 13.0553347132913373   F   F   F
 -4.3982041789803272 40.5995783119885019 13.1730992204417561   F   F   F
 -2.1991020894901636 44.8018582421305211 12.6278931688194618   F   F   F
 -5.4977552237254077 49.1456088232843697 13.1730992204417561   F   F   F
 -1.0995510447450823 36.2558277308346462 12.6278931688194618   F   F   F
 -2.1991020894901649 48.5306690868706383 14.3616484129783579   T   T   T
 -4.3982041789803272 44.3283891567286190 14.9068544646006522   T   T   T
 -1.0995510447450814 39.9846385755747704 14.3616484129783579   T   T   T
 -3.2986531342352468 35.7823586454327511 14.9068544646006522   T   T   T
 -2.1991020894901636 38.3443425362063834 15.6832278821107991   T   T   T
 -4.3982041789803263 42.5466224663484098 15.1380218304885048   T   T   T
 -3.2986531342352454 46.8903730475022584 15.6832278821107991   T   T   T
 -5.4977552237254095 51.0926529776442777 15.1380218304885048   T   T   T
 -2.1991020894901658 45.9924920090648612 14.6909528681582238   T   T   T
 -4.3982041789803272 41.7902120789228420 15.2361589197805181   T   T   T
 -1.0995510447450840 37.4464614977689934 14.6909528681582238   T   T   T
 -5.4977552237254086 50.3362425902187098 15.2361589197805181   T   T   T
 -2.1991020894901649 40.8825196140121676 15.3539234269309333   T   T   T
 -4.3982041789803272 45.0847995441541798 14.8087173753086390   T   T   T
 -3.2986531342352468 49.4285501253080355 15.3539234269309333   T   T   T
 -3.2986531342352459 36.5387690328583119 14.8087173753086390   T   T   T
 -4.3982041789803281 48.8136103888943040 16.5424726194675351   T   T   T
 -2.1991020894901645 44.6113304587522777 17.0876786710898294   T   T   T
 -3.2986531342352468 40.2675798775984362 16.5424726194675351   T   T   T
 -1.0995510447450831 36.0652999474564098 17.0876786710898330   T   T   T
 -4.3982041789803263 38.6272838382300492 17.8640520885999763   T   T   T
 -2.1991020894901654 42.8295637683720685 17.3188460369776855   T   T   T
 -5.4977552237254077 47.1733143495259242 17.8640520885999763   T   T   T
 -1.0995510447450836 34.2835332570761935 17.3188460369776820   T   T   T
 -4.3982041789803263 46.2754333110885270 16.8717770746474010   T   T   T
 -2.1991020894901641 42.0731533809465077 17.4169831262696988   T   T   T
 -3.2986531342352472 37.7294027997926520 16.8717770746474010   T   T   T
 -3.2986531342352468 50.6191838922423756 17.4169831262696952   T   T   T
 -4.3982041789803281 41.1654609160358262 17.5347476334201104   T   T   T
 -2.1991020894901645 45.3677408461778455 16.9895415817978161   T   T   T
 -5.4977552237254095 49.7114914273316941 17.5347476334201104   T   T   T
 -1.0995510447450831 36.8217103348819705 16.9895415817978161   T   T   T
 -4.3982041789803255 65.0568475054150639 10.0000000000000000   F   F   F
 -6.5973062684704882 60.8545675752730375 10.5452060516222943   F   F   F
 -3.2986531342352450 56.5108169941191889 10.0000000000000000   F   F   F
 -5.4977552237254077 52.3085370639771696 10.5452060516222943   F   F   F
 -4.3982041789803255 54.8705209547508019 11.3215794691324447   F   F   F
 -6.5973062684704891 59.0728008848928212 10.7763734175101469   F   F   F
 -5.4977552237254077 63.4165514660466769 11.3215794691324412   F   F   F
 -7.6968573132155704 67.6188313961886962 10.7763734175101469   F   F   F
 -4.3982041789803255 62.5186704276092797 10.3293044551798658   F   F   F
 -6.5973062684704900 58.3163904974672604 10.8745105068021601   F   F   F
 -3.2986531342352445 53.9726399163134118 10.3293044551798658   F   F   F
 -7.6968573132155704 66.8624210087631354 10.8745105068021601   F   F   F
 -4.3982041789803263 57.4086980325565861 10.9922750139525753   F   F   F
 -6.5973062684704891 61.6109779626985983 10.4470689623302846   F   F   F
 -5.4977552237254077 65.9547285438524540 10.9922750139525753   F   F   F
 -5.4977552237254077 53.0649474514027304 10.4470689623302810   F   F   F
 -6.5973062684704900 65.3397888074387225 12.1808242064891772   F   F   F
 -4.3982041789803263 61.1375088772966961 12.7260302581114750   F   F   F
 -5.4977552237254077 56.7937582961428546 12.1808242064891772   F   F   F
 -3.2986531342352454 52.5914783660008283 12.7260302581114750   F   F   F
 -6.5973062684704891 55.1534622567744606 13.5024036756216219   F   F   F
 -4.3982041789803263 59.3557421869164870 12.9571976239993276   F   F   F
 -7.6968573132155704 63.6994927680703356 13.5024036756216219   F   F   F
 -5.4977552237254086 67.9017726982123548 12.9571976239993241   F   F   F
 -6.5973062684704900 62.8016117296329455 12.5101286616690430   F   F   F
 -4.3982041789803263 58.5993317994909262 13.0553347132913409   F   F   F
 -5.4977552237254077 54.2555812183370705 12.5101286616690430   F   F   F
 -5.4977552237254095 67.1453623107867941 13.0553347132913373   F   F   F
 -6.5973062684704900 57.6916393345802447 13.1730992204417561   F   F   F
 -4.3982041789803263 61.8939192647222640 12.6278931688194618   F   F   F
 -7.6968573132155704 66.2376698458761126 13.1730992204417561   F   F   F
 -3.2986531342352450 53.3478887534263890 12.6278931688194618   F   F   F
 -4.3982041789803272 65.6227301094623812 14.3616484129783579   T   T   T
 -6.5973062684704900 61.4204501793203619 14.9068544646006522   T   T   T
 -3.2986531342352441 57.0766995981665133 14.3616484129783579   T   T   T
 -5.4977552237254095 52.8744196680244940 14.9068544646006522   T   T   T
 -4.3982041789803263 55.4364035587981263 15.6832278821107991   T   T   T
 -6.5973062684704891 59.6386834889401456 15.1380218304885048   T   T   T
 -5.4977552237254077 63.9824340700940013 15.6832278821107991   T   T   T
 -7.6968573132155722 68.1847140002360135 15.1380218304885048   T   T   T
 -4.3982041789803290 63.0845530316566112 14.6909528681582238   T   T   T
 -6.5973062684704900 58.8822731015145848 15.2361589197805181   T   T   T
 -3.2986531342352468 54.5385225203607362 14.6909528681582238   T   T   T
 -7.6968573132155713 67.4283036128104527 15.2361589197805181   T   T   T
 -4.3982041789803272 57.9745806366039105 15.3539234269309333   T   T   T
 -6.5973062684704900 62.1768605667459227 14.8087173753086390   T   T   T
 -5.4977552237254095 66.5206111478997713 15.3539234269309333   T   T   T
 -5.4977552237254086 53.6308300554500548 14.8087173753086390   T   T   T
 -6.5973062684704908 65.9056714114860398 16.5424726194675351   T   T   T
 -4.3982041789803272 61.7033914813440276 17.0876786710898294   T   T   T
 -5.4977552237254095 57.3596409001901790 16.5424726194675351   T   T   T
 -3.2986531342352459 53.1573609700481526 17.0876786710898330   T   T   T
 -6.5973062684704891 55.7193448608217921 17.8640520885999763   T   T   T
 -4.3982041789803281 59.9216247909638113 17.3188460369776855   T   T   T
 -7.6968573132155704 64.2653753721176599 17.8640520885999763   T   T   T
 -3.2986531342352463 51.3755942796679363 17.3188460369776820   T   T   T
 -6.5973062684704891 63.3674943336802698 16.8717770746474010   T   T   T
 -4.3982041789803272 59.1652144035382506 17.4169831262696988   T   T   T
 -5.4977552237254095 54.8214638223843949 16.8717770746474010   T   T   T
 -5.4977552237254095 67.7112449148341113 17.4169831262696952   T   T   T
 -6.5973062684704908 58.2575219386275691 17.5347476334201104   T   T   T
 -4.3982041789803272 62.4598018687695884 16.9895415817978161   T   T   T
 -7.6968573132155722 66.8035524499234441 17.5347476334201104   T   T   T
 -3.2986531342352459 53.9137713574737134 16.9895415817978161   T   T   T
  6.5973062684704882 13.7806644376398300 10.0000000000000000   F   F   F
  4.3982041789803255  9.5783845074978089 10.5452060516222943   F   F   F
  7.6968573132155687  5.2346339263439612 10.0000000000000000   F   F   F
  5.4977552237254059  1.0323539962019381 10.5452060516222943   F   F   F
  6.5973062684704882  3.5943378869755733 11.3215794691324447   F   F   F
  4.3982041789803246  7.7966178171175953 10.7763734175101469   F   F   F
  5.4977552237254059 12.1403683982714465 11.3215794691324412   F   F   F
  3.2986531342352432 16.3426483284134640 10.7763734175101469   F   F   F
  6.5973062684704882 11.2424873598340529 10.3293044551798658   F   F   F
  4.3982041789803237  7.0402074296920318 10.8745105068021601   F   F   F
  7.6968573132155687  2.6964568485381815 10.3293044551798658   F   F   F
  3.2986531342352432 15.5862379409878997 10.8745105068021601   F   F   F
  6.5973062684704873  6.1325149647813539 10.9922750139525753   F   F   F
  4.3982041789803246 10.3347948949233714 10.4470689623302846   F   F   F
  5.4977552237254059 14.6785454760772236 10.9922750139525753   F   F   F
  5.4977552237254059  1.7887643836275005 10.4470689623302810   F   F   F
  4.3982041789803237 14.0636057396634921 12.1808242064891772   F   F   F
  6.5973062684704873  9.8613258095214711 12.7260302581114750   F   F   F
  5.4977552237254059  5.5175752283676243 12.1808242064891772   F   F   F
  7.6968573132155687  1.3152952982256005 12.7260302581114750   F   F   F
  4.3982041789803246  3.8772791889992355 13.5024036756216219   F   F   F
  6.5973062684704873  8.0795591191412566 12.9571976239993276   F   F   F
  3.2986531342352428 12.4233097002951087 13.5024036756216219   F   F   F
  5.4977552237254050 16.6255896304371262 12.9571976239993241   F   F   F
  4.3982041789803237 11.5254286618577151 12.5101286616690430   F   F   F
  6.5973062684704873  7.3231487317156949 13.0553347132913409   F   F   F
  5.4977552237254059  2.9793981505618441 12.5101286616690430   F   F   F
  5.4977552237254042 15.8691792430115601 13.0553347132913373   F   F   F
  4.3982041789803237  6.4154562668050179 13.1730992204417561   F   F   F
  6.5973062684704873 10.6177361969470336 12.6278931688194618   F   F   F
  3.2986531342352428 14.9614867781008858 13.1730992204417561   F   F   F
  7.6968573132155687  2.0717056856511631 12.6278931688194618   F   F   F
  6.5973062684704864 14.3465470416871526 14.3616484129783579   T   T   T
  4.3982041789803237 10.1442671115451315 14.9068544646006522   T   T   T
  7.6968573132155695  5.8005165303912865 14.3616484129783579   T   T   T
  5.4977552237254042  1.5982366002492625 14.9068544646006522   T   T   T
  6.5973062684704873  4.1602204910228977 15.6832278821107991   T   T   T
  4.3982041789803246  8.3625004211649205 15.1380218304885048   T   T   T
  5.4977552237254059 12.7062510023187709 15.6832278821107991   T   T   T
  3.2986531342352414 16.9085309324607884 15.1380218304885048   T   T   T
  6.5973062684704846 11.8083699638813791 14.6909528681582238   T   T   T
  4.3982041789803237  7.6060900337393571 15.2361589197805181   T   T   T
  7.6968573132155669  3.2623394525855063 14.6909528681582238   T   T   T
  3.2986531342352423 16.1521205450352241 15.2361589197805181   T   T   T
  6.5973062684704864  6.6983975688286801 15.3539234269309333   T   T   T
  4.3982041789803237 10.9006774989706958 14.8087173753086390   T   T   T
  5.4977552237254042 15.2444280801245462 15.3539234269309333   T   T   T
  5.4977552237254050  2.3546469876748253 14.8087173753086390   T   T   T
  4.3982041789803228 14.6294883437108165 16.5424726194675351   T   T   T
  6.5973062684704864 10.4272084135687955 17.0876786710898294   T   T   T
  5.4977552237254042  6.0834578324149478 16.5424726194675351   T   T   T
  7.6968573132155678  1.8811779022729251 17.0876786710898330   T   T   T
  4.3982041789803246  4.4431617930465608 17.8640520885999763   T   T   T
  6.5973062684704855  8.6454417231885810 17.3188460369776855   T   T   T
  3.2986531342352432 12.9891923043424349 17.8640520885999763   T   T   T
  7.6968573132155669  0.0994112118927064 17.3188460369776820   T   T   T
  4.3982041789803246 12.0913112659050412 16.8717770746474010   T   T   T
  6.5973062684704864  7.8890313357630193 17.4169831262696988   T   T   T
  5.4977552237254042  3.5452807546091685 16.8717770746474010   T   T   T
  5.4977552237254042 16.4350618470588863 17.4169831262696952   T   T   T
  4.3982041789803228  6.9813388708523414 17.5347476334201104   T   T   T
  6.5973062684704864 11.1836188009943580 16.9895415817978161   T   T   T
  3.2986531342352419 15.5273693821482102 17.5347476334201104   T   T   T
  7.6968573132155678  2.6375882896984875 16.9895415817978161   T   T   T
  4.3982041789803255 30.8727254602315710 10.0000000000000000   F   F   F
  2.1991020894901623 26.6704455300895518 10.5452060516222943   F   F   F
  5.4977552237254059 22.3266949489357032 10.0000000000000000   F   F   F
  3.2986531342352436 18.1244150187936803 10.5452060516222943   F   F   F
  4.3982041789803255 20.6863989095673162 11.3215794691324447   F   F   F
  2.1991020894901623 24.8886788397093390 10.7763734175101469   F   F   F
  3.2986531342352436 29.2324294208631912 11.3215794691324412   F   F   F
  1.0995510447450805 33.4347093510052105 10.7763734175101469   F   F   F
  4.3982041789803255 28.3345483824257940 10.3293044551798658   F   F   F
  2.1991020894901614 24.1322684522837747 10.8745105068021601   F   F   F
  5.4977552237254059 19.7885178711299261 10.3293044551798658   F   F   F
  1.0995510447450805 32.6782989635796426 10.8745105068021601   F   F   F
  4.3982041789803246 23.2245759873730968 10.9922750139525753   F   F   F
  2.1991020894901623 27.4268559175151125 10.4470689623302846   F   F   F
  3.2986531342352432 31.7706064986689682 10.9922750139525753   F   F   F
  3.2986531342352436 18.8808254062192447 10.4470689623302810   F   F   F
  2.1991020894901609 31.1556667622552368 12.1808242064891772   F   F   F
  4.3982041789803246 26.9533868321132140 12.7260302581114750   F   F   F
  3.2986531342352432 22.6096362509593689 12.1808242064891772   F   F   F
  5.4977552237254059 18.4073563208173425 12.7260302581114750   F   F   F
  2.1991020894901618 20.9693402115909784 13.5024036756216219   F   F   F
  4.3982041789803246 25.1716201417330012 12.9571976239993276   F   F   F
  1.0995510447450800 29.5153707228868498 13.5024036756216219   F   F   F
  3.2986531342352423 33.7176506530288691 12.9571976239993241   F   F   F
  2.1991020894901614 28.6174896844494597 12.5101286616690430   F   F   F
  4.3982041789803246 24.4152097543074369 13.0553347132913409   F   F   F
  3.2986531342352436 20.0714591731535883 12.5101286616690430   F   F   F
  3.2986531342352419 32.9612402656033012 13.0553347132913373   F   F   F
  2.1991020894901609 23.5075172893967590 13.1730992204417561   F   F   F
  4.3982041789803246 27.7097972195387783 12.6278931688194618   F   F   F
  1.0995510447450800 32.0535478006926269 13.1730992204417561   F   F   F
  5.4977552237254059 19.1637667082429068 12.6278931688194618   F   F   F
  4.3982041789803237 31.4386080642788954 14.3616484129783579   T   T   T
  2.1991020894901605 27.2363281341368761 14.9068544646006522   T   T   T
  5.4977552237254068 22.8925775529830275 14.3616484129783579   T   T   T
  3.2986531342352414 18.6902976228410047 14.9068544646006522   T   T   T
  4.3982041789803246 21.2522815136146406 15.6832278821107991   T   T   T
  2.1991020894901614 25.4545614437566634 15.1380218304885048   T   T   T
  3.2986531342352428 29.7983120249105156 15.6832278821107991   T   T   T
  1.0995510447450787 34.0005919550525277 15.1380218304885048   T   T   T
  4.3982041789803219 28.9004309864731219 14.6909528681582238   T   T   T
  2.1991020894901605 24.6981510563310991 15.2361589197805181   T   T   T
  5.4977552237254042 20.3544004751772505 14.6909528681582238   T   T   T
  1.0995510447450798 33.2441815676269670 15.2361589197805181   T   T   T
  4.3982041789803237 23.7904585914204247 15.3539234269309333   T   T   T
  2.1991020894901614 27.9927385215624369 14.8087173753086390   T   T   T
  3.2986531342352414 32.3364891027162855 15.3539234269309333   T   T   T
  3.2986531342352423 19.4467080102665690 14.8087173753086390   T   T   T
  2.1991020894901601 31.7215493663025612 16.5424726194675351   T   T   T
  4.3982041789803237 27.5192694361605383 17.0876786710898294   T   T   T
  3.2986531342352414 23.1755188550066897 16.5424726194675351   T   T   T
  5.4977552237254050 18.9732389248646669 17.0876786710898330   T   T   T
  2.1991020894901618 21.5352228156383028 17.8640520885999763   T   T   T
  4.3982041789803228 25.7375027457803256 17.3188460369776855   T   T   T
  1.0995510447450805 30.0812533269341777 17.8640520885999763   T   T   T
  5.4977552237254042 17.1914722344844506 17.3188460369776820   T   T   T
  2.1991020894901614 29.1833722884967841 16.8717770746474010   T   T   T
  4.3982041789803237 24.9810923583547613 17.4169831262696988   T   T   T
  3.2986531342352410 20.6373417772009127 16.8717770746474010   T   T   T
  3.2986531342352414 33.5271228696506256 17.4169831262696952   T   T   T
  2.1991020894901601 24.0733998934440834 17.5347476334201104   T   T   T
  4.3982041789803237 28.2756798235861027 16.9895415817978161   T   T   T
  1.0995510447450791 32.6194304047399513 17.5347476334201104   T   T   T
  5.4977552237254050 19.7296493122902312 16.9895415817978161   T   T   T
  2.1991020894901623 47.9647864828233139 10.0000000000000000   F   F   F
 -0.0000000000000003 43.7625065526812946 10.5452060516222943   F   F   F
  3.2986531342352432 39.4187559715274460 10.0000000000000000   F   F   F
  1.0995510447450809 35.2164760413854268 10.5452060516222943   F   F   F