Mo S  Mo S  Mo S  Mo S  Mo S  Mo S  Mo S  Mo S  Mo S  Mo S  Mo S  Mo S  Mo S  Mo S  Mo S  Mo S  Mo S  Mo S  Mo S  Mo S  Mo S  Mo S  Mo S  Mo S  Mo S  Mo S  Mo S  Mo S  Mo S  Mo S  Mo S  Mo S  Mo S  Mo S  Mo S  Mo S  Mo S  Mo S  Mo S  Mo S  Mo S  Mo S  Mo S  Mo S  Mo S  Mo S  Mo S  Mo S  Mo S  Mo S  Mo S  Mo S  Mo S  Mo S  Mo S  Mo S  Mo S  Mo S  Mo S  Mo S  Mo S  Mo S  Mo S  Mo S 
 1.0000000000000000
    12.6400000000000006    0.0000000000000000    0.0000000000000000
     0.0000000000000000   49.1799999999999997    0.0000000000000000
     0.0000000000000000    0.0000000000000000   30.0343476785156973
 Mo  S   Mo  S   Mo  S   Mo  S   Mo  S   Mo  S   Mo  S   Mo  S   Mo  S   Mo  S   Mo  S   Mo  S   Mo  S   Mo  S   Mo  S   Mo  S   Mo  S   Mo  S   Mo  S   Mo  S   Mo  S   Mo  S   Mo  S   Mo  S   Mo  S   Mo  S   Mo  S   Mo  S   Mo  S   Mo  S   Mo  S   Mo  S   Mo  S   Mo  S   Mo  S   Mo  S   Mo  S   Mo  S   Mo  S   Mo  S   Mo  S   Mo  S   Mo  S   Mo  S   Mo  S   Mo  S   Mo  S   Mo  S   Mo  S   Mo  S   Mo  S   Mo  S   Mo  S   Mo  S   Mo  S   Mo  S   Mo  S   Mo  S   Mo  S   Mo  S   Mo  S   Mo  S   Mo  S   Mo  S  
   1   2   1   2   1   2   1   2   1   2   1   2   1   2   1   2   1   2   1   2   1   2   1   2   1   2   1   2   1   2   1   2   1   2   1   2   1   2   1   2   1   2   1   2   1   2   1   2   1   2   1   2   1   2   1   2   1   2   1   2   1   2   1   2   1   2   1   2   1   2   1   2   1   2   1   2   1   2   1   2   1   2   1   2   1   2   1   2   1   2   1   2   1   2   1   2   1   2   1   2   1   2   1   2   1   2   1   2   1   2   1   2   1   2   1   2   1   2   1   2   1   2   1   2   1   2   1   2
Selective dynamics
Cartesian
  0.0000000000000000  6.1475000000000000 10.0000000000000000   F   F   F
  1.5799999999999996  7.6228999999999987 10.9122134253196084   F   F   F
  3.1599999999999997  4.6721000000000004 11.8244268506392167   F   F   F
  1.5799999999999996  6.1475000000000000 12.7366402759588251   F   F   F
  3.1599999999999993  7.6228999999999987 13.6488537012784334   F   F   F
  1.5799999999999994  4.6721000000000004 14.5610671265980436   F   F   F
  3.1599999999999993  6.1475000000000000 15.4732805519176502   T   T   T
  1.5799999999999987  7.6228999999999987 16.3854939772372603   T   T   T
  3.1599999999999988  4.6721000000000004 17.2977074025568669   T   T   T
  1.5799999999999994  6.1475000000000000 18.2099208278764770   T   T   T
  3.1599999999999988  7.6228999999999987 19.1221342531960872   T   T   T
  1.5799999999999994  4.6721000000000004 20.0343476785156938   T   T   T
  0.0000000000000000 18.4424999999999990 10.0000000000000000   F   F   F
  1.5799999999999996 19.9178999999999995 10.9122134253196084   F   F   F
  3.1599999999999997 16.9671000000000021 11.8244268506392167   F   F   F
  1.5799999999999996 18.4424999999999990 12.7366402759588251   F   F   F
  3.1599999999999993 19.9178999999999995 13.6488537012784334   F   F   F
  1.5799999999999994 16.9671000000000021 14.5610671265980436   F   F   F
  3.1599999999999993 18.4424999999999990 15.4732805519176502   T   T   T
  1.5799999999999987 19.9178999999999995 16.3854939772372603   T   T   T
  3.1599999999999988 16.9671000000000021 17.2977074025568669   T   T   T
  1.5799999999999994 18.4424999999999990 18.2099208278764770   T   T   T
  3.1599999999999988 19.9178999999999995 19.1221342531960872   T   T   T
  1.5799999999999994 16.9671000000000021 20.0343476785156938   T   T   T
  0.0000000000000000 30.7375000000000007 10.0000000000000000   F   F   F
  1.5799999999999996 32.2128999999999976 10.9122134253196084   F   F   F
  3.1599999999999997 29.2621000000000002 11.8244268506392167   F   F   F
  1.5799999999999996 30.7375000000000007 12.7366402759588251   F   F   F
  3.1599999999999993 32.2128999999999976 13.6488537012784334   F   F   F
  1.5799999999999994 29.2621000000000002 14.5610671265980436   F   F   F
  3.1599999999999993 30.7375000000000007 15.4732805519176502   T   T   T
  1.5799999999999987 32.2128999999999976 16.3854939772372603   T   T   T
  3.1599999999999988 29.2621000000000002 17.2977074025568669   T   T   T
  1.5799999999999994 30.7375000000000007 18.2099208278764770   T   T   T
  3.1599999999999988 32.2128999999999976 19.1221342531960872   T   T   T
  1.5799999999999994 29.2621000000000002 20.0343476785156938   T   T   T
  0.0000000000000000 43.0324999999999989 10.0000000000000000   F   F   F
  1.5799999999999996 44.5078999999999994 10.9122134253196084   F   F   F
  3.1599999999999997 41.5570999999999984 11.8244268506392167   F   F   F
  1.5799999999999996 43.0324999999999989 12.7366402759588251   F   F   F
  3.1599999999999993 44.5078999999999994 13.6488537012784334   F   F   F
  1.5799999999999994 41.5570999999999984 14.5610671265980436   F   F   F
  3.1599999999999993 43.0324999999999989 15.4732805519176502   T   T   T
  1.5799999999999987 44.5078999999999994 16.3854939772372603   T   T   T
  3.1599999999999988 41.5570999999999984 17.2977074025568669   T   T   T
  1.5799999999999994 43.0324999999999989 18.2099208278764770   T   T   T
  3.1599999999999988 44.5078999999999994 19.1221342531960872   T   T   T
  1.5799999999999994 41.5570999999999984 20.0343476785156938   T   T   T
  3.1600000000000001  6.1475000000000000 10.0000000000000000   F   F   F
  4.7400000000000002  7.6228999999999987 10.9122134253196084   F   F   F
  6.3200000000000003  4.6721000000000004 11.8244268506392167   F   F   F
  4.7400000000000002  6.1475000000000000 12.7366402759588251   F   F   F
  6.3199999999999994  7.6228999999999987 13.6488537012784334   F   F   F
  4.7399999999999993  4.6721000000000004 14.5610671265980436   F   F   F
  6.3199999999999994  6.1475000000000000 15.4732805519176502   T   T   T
  4.7399999999999984  7.6228999999999987 16.3854939772372603   T   T   T
  6.3199999999999985  4.6721000000000004 17.2977074025568669   T   T   T
  4.7399999999999993  6.1475000000000000 18.2099208278764770   T   T   T
  6.3199999999999985  7.6228999999999987 19.1221342531960872   T   T   T
  4.7399999999999993  4.6721000000000004 20.0343476785156938   T   T   T
  3.1600000000000001 18.4424999999999990 10.0000000000000000   F   F   F
  4.7400000000000002 19.9178999999999995 10.9122134253196084   F   F   F
  6.3200000000000003 16.9671000000000021 11.8244268506392167   F   F   F
  4.7400000000000002 18.4424999999999990 12.7366402759588251   F   F   F
  6.3199999999999994 19.9178999999999995 13.6488537012784334   F   F   F
  4.7399999999999993 16.9671000000000021 14.5610671265980436   F   F   F
  6.3199999999999994 18.4424999999999990 15.4732805519176502   T   T   T
  4.7399999999999984 19.9178999999999995 16.3854939772372603   T   T   T
  6.3199999999999985 16.9671000000000021 17.2977074025568669   T   T   T
  4.7399999999999993 18.4424999999999990 18.2099208278764770   T   T   T
  6.3199999999999985 19.9178999999999995 19.1221342531960872   T   T   T
  4.7399999999999993 16.9671000000000021 20.0343476785156938   T   T   T
  3.1600000000000001 30.7375000000000007 10.0000000000000000   F   F   F
  4.7400000000000002 32.2128999999999976 10.9122134253196084   F   F   F
  6.3200000000000003 29.2621000000000002 11.8244268506392167   F   F   F
  4.7400000000000002 30.7375000000000007 12.7366402759588251   F   F   F
  6.3199999999999994 32.2128999999999976 13.6488537012784334   F   F   F
  4.7399999999999993 29.2621000000000002 14.5610671265980436   F   F   F
  6.3199999999999994 30.7375000000000007 15.4732805519176502   T   T   T
  4.7399999999999984 32.2128999999999976 16.3854939772372603   T   T   T
  6.3199999999999985 29.2621000000000002 17.2977074025568669   T   T   T
  4.7399999999999993 30.7375000000000007 18.2099208278764770   T   T   T
  6.3199999999999985 32.2128999999999976 19.1221342531960872   T   T   T
  4.7399999999999993 29.2621000000000002 20.0343476785156938   T   T   T
  3.1600000000000001 43.0324999999999989 10.0000000000000000   F   F   F
  4.7400000000000002 44.5078999999999994 10.9122134253196084   F   F   F
  6.3200000000000003 41.5570999999999984 11.8244268506392167   F   F   F
  4.7400000000000002 43.0324999999999989 12.7366402759588251   F   F   F
  6.3199999999999994 44.5078999999999994 13.6488537012784334   F   F   F
  4.7399999999999993 41.5570999999999984 14.5610671265980436   F   F   F
  6.3199999999999994 43.0324999999999989 15.4732805519176502   T   T   T
  4.7399999999999984 44.5078999999999994 16.3854939772372603   T   T   T
  6.3199999999999985 41.5570999999999984 17.2977074025568669   T   T   T
  4.7399999999999993 43.0324999999999989 18.2099208278764770   T   T   T
  6.3199999999999985 44.5078999999999994 19.1221342531960872   T   T   T
  4.7399999999999993 41.5570999999999984 20.0343476785156938   T   T   T
  6.3200000000000003  6.1475000000000000 10.0000000000000000   F   F   F
  7.9000000000000004  7.6228999999999987 10.9122134253196084   F   F   F
  9.4800000000000004  4.6721000000000004 11.8244268506392167   F   F   F
  7.9000000000000004  6.1475000000000000 12.7366402759588251   F   F   F
  9.4800000000000004  7.6228999999999987 13.6488537012784334   F   F   F
  7.8999999999999995  4.6721000000000004 14.5610671265980436   F   F   F
  9.4800000000000004  6.1475000000000000 15.4732805519176502   T   T   T
  7.8999999999999986  7.6228999999999987 16.3854939772372603   T   T   T
  9.4799999999999986  4.6721000000000004 17.2977074025568669   T   T   T
  7.8999999999999995  6.1475000000000000 18.2099208278764770   T   T   T
  9.4799999999999986  7.6228999999999987 19.1221342531960872   T   T   T
  7.8999999999999995  4.6721000000000004 20.0343476785156938   T   T   T
  6.3200000000000003 18.4424999999999990 10.0000000000000000   F   F   F
  7.9000000000000004 19.9178999999999995 10.9122134253196084   F   F   F
  9.4800000000000004 16.9671000000000021 11.8244268506392167   F   F   F
  7.9000000000000004 18.4424999999999990 12.7366402759588251   F   F   F
  9.4800000000000004 19.9178999999999995 13.6488537012784334   F   F   F
  7.8999999999999995 16.9671000000000021 14.5610671265980436   F   F   F
  9.4800000000000004 18.4424999999999990 15.4732805519176502   T   T   T
  7.8999999999999986 19.9178999999999995 16.3854939772372603   T   T   T
  9.4799999999999986 16.9671000000000021 17.2977074025568669   T   T   T
  7.8999999999999995 18.4424999999999990 18.2099208278764770   T   T   T
  9.4799999999999986 19.9178999999999995 19.1221342531960872   T   T   T
  7.8999999999999995 16.9671000000000021 20.0343476785156938   T   T   T
  6.3200000000000003 30.7375000000000007 10.0000000000000000   F   F   F
  7.9000000000000004 32.2128999999999976 10.9122134253196084   F   F   F
  9.4800000000000004 29.2621000000000002 11.8244268506392167   F   F   F
  7.9000000000000004 30.7375000000000007 12.7366402759588251   F   F   F
  9.4800000000000004 32.2128999999999976 13.6488537012784334   F   F   F
  7.8999999999999995 29.2621000000000002 14.5610671265980436   F   F   F
  9.4800000000000004 30.7375000000000007 15.4732805519176502   T   T   T
  7.8999999999999986 32.2128999999999976 16.3854939772372603   T   T   T
  9.4799999999999986 29.2621000000000002 17.2977074025568669   T   T   T
  7.8999999999999995 30.7375000000000007 18.2099208278764770   T   T   T
  9.4799999999999986 32.2128999999999976 19.1221342531960872   T   T   T
  7.8999999999999995 29.2621000000000002 20.0343476785156938   T   T   T
  6.3200000000000003 43.0324999999999989 10.0000000000000000   F   F   F
  7.9000000000000004 44.5078999999999994 10.9122134253196084   F   F   F
  9.4800000000000004 41.5570999999999984 11.8244268506392167   F   F   F
  7.9000000000000004 43.0324999999999989 12.7366402759588251   F   F   F
  9.4800000000000004 44.5078999999999994 13.6488537012784334   F   F   F
  7.8999999999999995 41.5570999999999984 14.5610671265980436   F   F   F
  9.4800000000000004 43.0324999999999989 15.4732805519176502   T   T   T
  7.8999999999999986 44.5078999999999994 16.3854939772372603   T   T   T
  9.4799999999999986 41.5570999999999984 17.2977074025568669   T   T   T
  7.8999999999999995 43.0324999999999989 18.2099208278764770   T   T   T
  9.4799999999999986 44.5078999999999994 19.1221342531960872   T   T   T
  7.8999999999999995 41.5570999999999984 20.0343476785156938   T   T   T
  9.4800000000000004  6.1475000000000000 10.0000000000000000   F   F   F
 11.0600000000000005  7.6228999999999987 10.9122134253196084   F   F   F
 12.6400000000000006  4.6721000000000004 11.8244268506392167   F   F   F
 11.0600000000000005  6.1475000000000000 12.7366402759588251   F   F   F
 12.6400000000000006  7.6228999999999987 13.6488537012784334   F   F   F
 11.0600000000000005  4.6721000000000004 14.5610671265980436   F   F   F
 12.6400000000000006  6.1475000000000000 15.4732805519176502   T   T   T
 11.0599999999999987  7.6228999999999987 16.3854939772372603   T   T   T
 12.6399999999999988  4.6721000000000004 17.2977074025568669   T   T   T
 11.0600000000000005  6.1475000000000000 18.2099208278764770   T   T   T
 12.6399999999999988  7.6228999999999987 19.1221342531960872   T   T   T
 11.0600000000000005  4.6721000000000004 20.0343476785156938   T   T   T
  9.4800000000000004 18.4424999999999990 10.0000000000000000   F   F   F
 11.0600000000000005 19.9178999999999995 10.9122134253196084   F   F   F
 12.6400000000000006 16.9671000000000021 11.8244268506392167   F   F   F
 11.0600000000000005 18.4424999999999990 12.7366402759588251   F   F   F
 12.6400000000000006 19.9178999999999995 13.6488537012784334   F   F   F
 11.0600000000000005 16.9671000000000021 14.5610671265980436   F   F   F
 12.6400000000000006 18.4424999999999990 15.4732805519176502   T   T   T
 11.0599999999999987 19.9178999999999995 16.3854939772372603   T   T   T
 12.6399999999999988 16.9671000000000021 17.2977074025568669   T   T   T
 11.0600000000000005 18.4424999999999990 18.2099208278764770   T   T   T
 12.6399999999999988 19.9178999999999995 19.1221342531960872   T   T   T
 11.0600000000000005 16.9671000000000021 20.0343476785156938   T   T   T
  9.4800000000000004 30.7375000000000007 10.0000000000000000   F   F   F
 11.0600000000000005 32.2128999999999976 10.9122134253196084   F   F   F
 12.6400000000000006 29.2621000000000002 11.8244268506392167   F   F   F
 11.0600000000000005 30.7375000000000007 12.7366402759588251   F   F   F
 12.6400000000000006 32.2128999999999976 13.6488537012784334   F   F   F
 11.0600000000000005 29.2621000000000002 14.5610671265980436   F   F   F
 12.6400000000000006 30.7375000000000007 15.4732805519176502   T   T   T
 11.0599999999999987 32.2128999999999976 16.3854939772372603   T   T   T
 12.6399999999999988 29.2621000000000002 17.2977074025568669   T   T   T
 11.0600000000000005 30.7375000000000007 18.2099208278764770   T   T   T
 12.6399999999999988 32.2128999999999976 19.1221342531960872   T   T   T
 11.0600000000000005 29.2621000000000002 20.0343476785156938   T   T   T
  9.4800000000000004 43.0324999999999989 10.0000000000000000   F   F   F
 11.0600000000000005 44.5078999999999994 10.9122134253196084   F   F   F
 12.6400000000000006 41.5570999999999984 11.8244268506392167   F   F   F
 11.0600000000000005 43.0324999999999989 12.7366402759588251   F   F   F
 12.6400000000000006 44.5078999999999994 13.6488537012784334   F   F   F
 11.0600000000000005 41.5570999999999984 14.5610671265980436   F   F   F
 12.6400000000000006 43.0324999999999989 15.4732805519176502   T   T   T
 11.0599999999999987 44.5078999999999994 16.3854939772372603   T   T   T
 12.6399999999999988 41.5570999999999984 17.2977074025568669   T   T   T
 11.0600000000000005 43.0324999999999989 18.2099208278764770   T   T   T
 12.6399999999999988 44.5078999999999994 19.1221342531960872   T   T   T
 11.0600000000000005 41.5570999999999984 20.0343476785156938   T   T   T
