Mo N  Mo N  Mo N  Mo N  Mo N  Mo N  Mo N  Mo N  Mo N  Mo N  Mo N  Mo N  Mo N  Mo N  Mo N  Mo N 
 1.0000000000000000
    11.7662568389441518    0.0000000000000000    0.0000000000000000
     5.8831284194720759   10.1898773299780210    0.0000000000000000
     0.0000000000000000    0.0000000000000000   24.4062199194009537
 Mo  N   Mo  N   Mo  N   Mo  N   Mo  N   Mo  N   Mo  N   Mo  N   Mo  N   Mo  N   Mo  N   Mo  N   Mo  N   Mo  N   Mo  N   Mo  N  
   2   1   2   1   2   1   2   1   2   1   2   1   2   1   2   1   2   1   2   1   2   1   2   1   2   1   2   1   2   1   2   1
Selective dynamics
Cartesian
  0.0000000000000000  0.0000000000000000  8.0000000000000000   F   F   F
  2.9415642097360379  1.6983128883296699  9.2008885599144214   F   F   F
  4.4123463146040569  2.5474693324945048  8.0000000000000000   F   F   F
  5.8831284194720759  3.3966257766593397 10.4017771198288429   F   F   F
  2.9415642097360375  5.0949386649890096 11.6026656797432643   F   F   F
  1.4707821048680176  0.8491564441648345 10.4017771198288429   F   F   F
  2.9415642097360370  1.6983128883296692 12.8035542396576858   T   T   T
  5.8831284194720750  3.3966257766593397 14.0044427995721090   T   T   T
  7.3539105243400957  4.2457822208241751 12.8035542396576858   T   T   T
  2.9415642097360375  5.0949386649890096 15.2053313594865305   T   T   T
  2.9415642097360406  1.6983128883296688 16.4062199194009537   T   T   T
  4.4123463146040560  2.5474693324945035 15.2053313594865305   T   T   T
  2.9415642097360379  5.0949386649890105  8.0000000000000000   F   F   F
  5.8831284194720759  6.7932515533186804  9.2008885599144214   F   F   F
  7.3539105243400948  7.6424079974835148  8.0000000000000000   F   F   F
  8.8246926292081138  8.4915644416483502 10.4017771198288429   F   F   F
  5.8831284194720759 10.1898773299780210 11.6026656797432643   F   F   F
  4.4123463146040560  5.9440951091538450 10.4017771198288429   F   F   F
  5.8831284194720750  6.7932515533186795 12.8035542396576858   T   T   T
  8.8246926292081120  8.4915644416483502 14.0044427995721090   T   T   T
 10.2954747340761337  9.3407208858131856 12.8035542396576858   T   T   T
  5.8831284194720759 10.1898773299780210 15.2053313594865305   T   T   T
  5.8831284194720785  6.7932515533186795 16.4062199194009537   T   T   T
  7.3539105243400940  7.6424079974835140 15.2053313594865305   T   T   T
  5.8831284194720759  0.0000000000000000  8.0000000000000000   F   F   F
  8.8246926292081138  1.6983128883296699  9.2008885599144214   F   F   F
 10.2954747340761337  2.5474693324945048  8.0000000000000000   F   F   F
 11.7662568389441518  3.3966257766593397 10.4017771198288429   F   F   F
  8.8246926292081138  5.0949386649890096 11.6026656797432643   F   F   F
  7.3539105243400940  0.8491564441648345 10.4017771198288429   F   F   F
  8.8246926292081120  1.6983128883296692 12.8035542396576858   T   T   T
 11.7662568389441518  3.3966257766593397 14.0044427995721090   T   T   T
 13.2370389438121716  4.2457822208241751 12.8035542396576858   T   T   T
  8.8246926292081138  5.0949386649890096 15.2053313594865305   T   T   T
  8.8246926292081156  1.6983128883296688 16.4062199194009537   T   T   T
 10.2954747340761319  2.5474693324945035 15.2053313594865305   T   T   T
  8.8246926292081138  5.0949386649890105  8.0000000000000000   F   F   F
 11.7662568389441518  6.7932515533186804  9.2008885599144214   F   F   F
 13.2370389438121698  7.6424079974835148  8.0000000000000000   F   F   F
 14.7078210486801897  8.4915644416483502 10.4017771198288429   F   F   F
 11.7662568389441518 10.1898773299780210 11.6026656797432643   F   F   F
 10.2954747340761319  5.9440951091538450 10.4017771198288429   F   F   F
 11.7662568389441518  6.7932515533186795 12.8035542396576858   T   T   T
 14.7078210486801879  8.4915644416483502 14.0044427995721090   T   T   T
 16.1786031535482095  9.3407208858131856 12.8035542396576858   T   T   T
 11.7662568389441518 10.1898773299780210 15.2053313594865305   T   T   T
 11.7662568389441553  6.7932515533186795 16.4062199194009537   T   T   T
 13.2370389438121698  7.6424079974835140 15.2053313594865305   T   T   T
