Mo S  Mo S  Mo S  Mo S  Mo S  Mo S  Mo S  Mo S  Mo S  Mo S  Mo S  Mo S  Mo S  Mo S  Mo S  Mo S 
 1.0000000000000000
     6.3200000000000003    0.0000000000000000    0.0000000000000000
     0.0000000000000000   24.5899999999999999    0.0000000000000000
     0.0000000000000000    0.0000000000000000   26.0343476785156938
 Mo  S   Mo  S   Mo  S   Mo  S   Mo  S   Mo  S   Mo  S   Mo  S   Mo  S   Mo  S   Mo  S   Mo  S   Mo  S   Mo  S   Mo  S   Mo  S  
   1   2   1   2   1   2   1   2   1   2   1   2   1   2   1   1   1   2   1   2   1   2   1   2   1   2   1   2   1   2   1   1
Selective dynamics
Cartesian
  0.0000000000000000  6.1475000000000000  8.0000000000000000   F   F   F
  1.5799999999999996  7.6228999999999987  8.9122134253196084   F   F   F
  3.1599999999999997  4.6721000000000004  9.8244268506392167   F   F   F
  1.5799999999999996  6.1475000000000000 10.7366402759588251   F   F   F
  3.1599999999999993  7.6228999999999987 11.6488537012784334   F   F   F
  1.5799999999999994  4.6721000000000004 12.5610671265980436   F   F   F
  3.1599999999999993  6.1475000000000000 13.4732805519176502   T   T   T
  1.5799999999999987  7.6228999999999987 14.3854939772372585   T   T   T
  3.1599999999999988  4.6721000000000004 15.2977074025568669   T   T   T
  1.5799999999999994  6.1475000000000000 16.2099208278764770   T   T   T
  3.1599999999999988  7.6228999999999987 17.1221342531960872   T   T   T
  1.5799999999999994  4.6721000000000004 18.0343476785156938   T   T   T
  0.0000000000000000 18.4424999999999990  8.0000000000000000   F   F   F
  1.5799999999999996 19.9178999999999995  8.9122134253196084   F   F   F
  3.1599999999999997 16.9671000000000021  9.8244268506392167   F   F   F
  1.5799999999999996 18.4424999999999990 10.7366402759588251   F   F   F
  3.1599999999999993 19.9178999999999995 11.6488537012784334   F   F   F
  1.5799999999999994 16.9671000000000021 12.5610671265980436   F   F   F
  3.1599999999999993 18.4424999999999990 13.4732805519176502   T   T   T
  1.5799999999999987 19.9178999999999995 14.3854939772372585   T   T   T
  3.1599999999999988 16.9671000000000021 15.2977074025568669   T   T   T
  1.5799999999999994 18.4424999999999990 16.2099208278764770   T   T   T
  3.1599999999999988 19.9178999999999995 17.1221342531960872   T   T   T
  3.1600000000000001  6.1475000000000000  8.0000000000000000   F   F   F
  4.7400000000000002  7.6228999999999987  8.9122134253196084   F   F   F
  6.3200000000000003  4.6721000000000004  9.8244268506392167   F   F   F
  4.7400000000000002  6.1475000000000000 10.7366402759588251   F   F   F
  6.3199999999999994  7.6228999999999987 11.6488537012784334   F   F   F
  4.7399999999999993  4.6721000000000004 12.5610671265980436   F   F   F
  6.3199999999999994  6.1475000000000000 13.4732805519176502   T   T   T
  4.7399999999999984  7.6228999999999987 14.3854939772372585   T   T   T
  6.3199999999999985  4.6721000000000004 15.2977074025568669   T   T   T
  4.7399999999999993  6.1475000000000000 16.2099208278764770   T   T   T
  6.3199999999999985  7.6228999999999987 17.1221342531960872   T   T   T
  4.7399999999999993  4.6721000000000004 18.0343476785156938   T   T   T
  3.1600000000000001 18.4424999999999990  8.0000000000000000   F   F   F
  4.7400000000000002 19.9178999999999995  8.9122134253196084   F   F   F
  6.3200000000000003 16.9671000000000021  9.8244268506392167   F   F   F
  4.7400000000000002 18.4424999999999990 10.7366402759588251   F   F   F
  6.3199999999999994 19.9178999999999995 11.6488537012784334   F   F   F
  4.7399999999999993 16.9671000000000021 12.5610671265980436   F   F   F
  6.3199999999999994 18.4424999999999990 13.4732805519176502   T   T   T
  4.7399999999999984 19.9178999999999995 14.3854939772372585   T   T   T
  6.3199999999999985 16.9671000000000021 15.2977074025568669   T   T   T
  4.7399999999999993 18.4424999999999990 16.2099208278764770   T   T   T
  6.3199999999999985 19.9178999999999995 17.1221342531960872   T   T   T
