Ni Mo N  Mo N  Mo N  Mo N  Mo N  Mo N  Mo N  Mo N  Ir
 1.0000000000000000
     7.4670476093299420    0.0000000000000000    0.0000000000000000
     0.0000000000000000    7.4670476093299420    0.0000000000000000
     0.0000000000000000    0.0000000000000000   29.7199999999999989
 Ni  Mo  N   Mo  N   Mo  N   Mo  N   Mo  N   Mo  N   Mo  N   Mo  N   Ir 
  36   2   1   2   1   2   1   2   1   2   1   2   1   2   1   2   1   4
Selective dynamics
Cartesian
  1.2445079348883237  1.2445079348883237  8.0000000000000000   F   F   F
  3.7335238046649710  1.2445079348883237  8.0000000000000000   F   F   F
  6.2225396744416184  1.2445079348883237  8.0000000000000000   F   F   F
  1.2445079348883237  3.7335238046649710  8.0000000000000000   F   F   F
  3.7335238046649710  3.7335238046649710  8.0000000000000000   F   F   F
  6.2225396744416184  3.7335238046649710  8.0000000000000000   F   F   F
  1.2445079348883237  6.2225396744416184  8.0000000000000000   F   F   F
  3.7335238046649710  6.2225396744416184  8.0000000000000000   F   F   F
  6.2225396744416184  6.2225396744416184  8.0000000000000000   F   F   F
  0.0000000000000000  0.0000000000000000  9.7599999999999998   F   F   F
  2.4890158697766473  0.0000000000000000  9.7599999999999998   F   F   F
  4.9780317395532947  0.0000000000000000  9.7599999999999998   F   F   F
  0.0000000000000000  2.4890158697766473  9.7599999999999998   F   F   F
  2.4890158697766473  2.4890158697766473  9.7599999999999998   F   F   F
  4.9780317395532947  2.4890158697766473  9.7599999999999998   F   F   F
  0.0000000000000000  4.9780317395532947  9.7599999999999998   F   F   F
  2.4890158697766473  4.9780317395532947  9.7599999999999998   F   F   F
  4.9780317395532947  4.9780317395532947  9.7599999999999998   F   F   F
  1.2445079348883237  1.2445079348883237 11.5199999999999996   T   T   T
  3.7335238046649710  1.2445079348883237 11.5199999999999996   T   T   T
  6.2225396744416184  1.2445079348883237 11.5199999999999996   T   T   T
  1.2445079348883237  3.7335238046649710 11.5199999999999996   T   T   T
  3.7335238046649710  3.7335238046649710 11.5199999999999996   T   T   T
  6.2225396744416184  3.7335238046649710 11.5199999999999996   T   T   T
  1.2445079348883237  6.2225396744416184 11.5199999999999996   T   T   T
  3.7335238046649710  6.2225396744416184 11.5199999999999996   T   T   T
  6.2225396744416184  6.2225396744416184 11.5199999999999996   T   T   T
  0.0000000000000000  0.0000000000000000 13.2800000000000011   T   T   T
  2.4890158697766473  0.0000000000000000 13.2800000000000011   T   T   T
  4.9780317395532947  0.0000000000000000 13.2800000000000011   T   T   T
  0.0000000000000000  2.4890158697766473 13.2800000000000011   T   T   T
  2.4890158697766473  2.4890158697766473 13.2800000000000011   T   T   T
  4.9780317395532947  2.4890158697766473 13.2800000000000011   T   T   T
  0.0000000000000000  4.9780317395532947 13.2800000000000011   T   T   T
  2.4890158697766473  4.9780317395532947 13.2800000000000011   T   T   T
  4.9780317395532947  4.9780317395532947 13.2800000000000011   T   T   T
  0.0000000000000000  0.0000000000000000 15.4800000000000004   T   T   T
  2.0800000000000001  2.0800000000000001 17.5600000000000023   T   T   T
  2.0800000000000001  0.0000000000000000 17.5600000000000023   T   T   T
  0.0000000000000000  0.0000000000000000 19.6400000000000006   T   T   T
  2.0800000000000001  2.0800000000000001 21.7199999999999989   T   T   T
  2.0800000000000001  0.0000000000000000 21.7199999999999989   T   T   T
  0.0000000000000000  4.1600000000000001 15.4800000000000004   T   T   T
  2.0800000000000001  6.2400000000000002 17.5600000000000023   T   T   T
  2.0800000000000001  4.1600000000000001 17.5600000000000023   T   T   T
  0.0000000000000000  4.1600000000000001 19.6400000000000006   T   T   T
  2.0800000000000001  6.2400000000000002 21.7199999999999989   T   T   T
  2.0800000000000001  4.1600000000000001 21.7199999999999989   T   T   T
  4.1600000000000001  0.0000000000000000 15.4800000000000004   T   T   T
  6.2400000000000002  2.0800000000000001 17.5600000000000023   T   T   T
  6.2400000000000002  0.0000000000000000 17.5600000000000023   T   T   T
  4.1600000000000001  0.0000000000000000 19.6400000000000006   T   T   T
  6.2400000000000002  2.0800000000000001 21.7199999999999989   T   T   T
  6.2400000000000002  0.0000000000000000 21.7199999999999989   T   T   T
  4.1600000000000001  4.1600000000000001 15.4800000000000004   T   T   T
  6.2400000000000002  6.2400000000000002 17.5600000000000023   T   T   T
  6.2400000000000002  4.1600000000000001 17.5600000000000023   T   T   T
  4.1600000000000001  4.1600000000000001 19.6400000000000006   T   T   T
  6.2400000000000002  6.2400000000000002 21.7199999999999989   T   T   T
  6.2400000000000002  4.1600000000000001 21.7199999999999989   T   T   T
  2.0534285689991529  1.7760952356658197 23.5199999999999996   T   T   T
  2.0534285689991529  4.1760952356658194 23.5199999999999996   T   T   T
  4.4534285689991524  1.7760952356658197 23.5199999999999996   T   T   T
  4.4534285689991524  4.1760952356658194 23.5199999999999996   T   T   T
