Ni Mo S  Mo S  Mo S  Mo S  Mo S  Mo S  Mo S  Mo S  Au
 1.0000000000000000
     7.4670476093299420    0.0000000000000000    0.0000000000000000
     0.0000000000000000    7.4670476093299420    0.0000000000000000
     0.0000000000000000    0.0000000000000000   28.0410671265980440
 Ni  Mo  S   Mo  S   Mo  S   Mo  S   Mo  S   Mo  S   Mo  S   Mo  S   Au 
  36   1   2   1   2   1   2   1   2   1   2   1   2   1   2   1   2   4
Selective dynamics
Cartesian
  1.2445079348883237  1.2445079348883237  8.0000000000000000   F   F   F
  3.7335238046649710  1.2445079348883237  8.0000000000000000   F   F   F
  6.2225396744416184  1.2445079348883237  8.0000000000000000   F   F   F
  1.2445079348883237  3.7335238046649710  8.0000000000000000   F   F   F
  3.7335238046649710  3.7335238046649710  8.0000000000000000   F   F   F
  6.2225396744416184  3.7335238046649710  8.0000000000000000   F   F   F
  1.2445079348883237  6.2225396744416184  8.0000000000000000   F   F   F
  3.7335238046649710  6.2225396744416184  8.0000000000000000   F   F   F
  6.2225396744416184  6.2225396744416184  8.0000000000000000   F   F   F
  0.0000000000000000  0.0000000000000000  9.7599999999999998   F   F   F
  2.4890158697766473  0.0000000000000000  9.7599999999999998   F   F   F
  4.9780317395532947  0.0000000000000000  9.7599999999999998   F   F   F
  0.0000000000000000  2.4890158697766473  9.7599999999999998   F   F   F
  2.4890158697766473  2.4890158697766473  9.7599999999999998   F   F   F
  4.9780317395532947  2.4890158697766473  9.7599999999999998   F   F   F
  0.0000000000000000  4.9780317395532947  9.7599999999999998   F   F   F
  2.4890158697766473  4.9780317395532947  9.7599999999999998   F   F   F
  4.9780317395532947  4.9780317395532947  9.7599999999999998   F   F   F
  1.2445079348883237  1.2445079348883237 11.5199999999999996   T   T   T
  3.7335238046649710  1.2445079348883237 11.5199999999999996   T   T   T
  6.2225396744416184  1.2445079348883237 11.5199999999999996   T   T   T
  1.2445079348883237  3.7335238046649710 11.5199999999999996   T   T   T
  3.7335238046649710  3.7335238046649710 11.5199999999999996   T   T   T
  6.2225396744416184  3.7335238046649710 11.5199999999999996   T   T   T
  1.2445079348883237  6.2225396744416184 11.5199999999999996   T   T   T
  3.7335238046649710  6.2225396744416184 11.5199999999999996   T   T   T
  6.2225396744416184  6.2225396744416184 11.5199999999999996   T   T   T
  0.0000000000000000  0.0000000000000000 13.2800000000000011   T   T   T
  2.4890158697766473  0.0000000000000000 13.2800000000000011   T   T   T
  4.9780317395532947  0.0000000000000000 13.2800000000000011   T   T   T
  0.0000000000000000  2.4890158697766473 13.2800000000000011   T   T   T
  2.4890158697766473  2.4890158697766473 13.2800000000000011   T   T   T
  4.9780317395532947  2.4890158697766473 13.2800000000000011   T   T   T
  0.0000000000000000  4.9780317395532947 13.2800000000000011   T   T   T
  2.4890158697766473  4.9780317395532947 13.2800000000000011   T   T   T
  4.9780317395532947  4.9780317395532947 13.2800000000000011   T   T   T
  0.0000000000000000  6.1475000000000000 15.4800000000000004   T   T   T
  1.5799999999999996  7.6228999999999987 16.3922134253196106   T   T   T
  3.1599999999999997  4.6721000000000004 17.3044268506392172   T   T   T
  1.5799999999999996  6.1475000000000000 18.2166402759588273   T   T   T
  3.1599999999999993  7.6228999999999987 19.1288537012784339   T   T   T
  1.5799999999999994  4.6721000000000004 20.0410671265980440   T   T   T
  0.0000000000000000 18.4424999999999990 15.4800000000000004   T   T   T
  1.5799999999999996 19.9178999999999995 16.3922134253196106   T   T   T
  3.1599999999999997 16.9671000000000021 17.3044268506392172   T   T   T
  1.5799999999999996 18.4424999999999990 18.2166402759588273   T   T   T
  3.1599999999999993 19.9178999999999995 19.1288537012784339   T   T   T
  1.5799999999999994 16.9671000000000021 20.0410671265980440   T   T   T
  3.1600000000000001  6.1475000000000000 15.4800000000000004   T   T   T
  4.7400000000000002  7.6228999999999987 16.3922134253196106   T   T   T
  6.3200000000000003  4.6721000000000004 17.3044268506392172   T   T   T
  4.7400000000000002  6.1475000000000000 18.2166402759588273   T   T   T
  6.3199999999999994  7.6228999999999987 19.1288537012784339   T   T   T
  4.7399999999999993  4.6721000000000004 20.0410671265980440   T   T   T
  3.1600000000000001 18.4424999999999990 15.4800000000000004   T   T   T
  4.7400000000000002 19.9178999999999995 16.3922134253196106   T   T   T
  6.3200000000000003 16.9671000000000021 17.3044268506392172   T   T   T
  4.7400000000000002 18.4424999999999990 18.2166402759588273   T   T   T
  6.3199999999999994 19.9178999999999995 19.1288537012784339   T   T   T
  4.7399999999999993 16.9671000000000021 20.0410671265980440   T   T   T
  2.0360952356658188  5.5847619023324855 21.8410671265980447   T   T   T
  2.0360952356658188  7.9847619023324858 21.8410671265980447   T   T   T
  4.4360952356658192  5.5847619023324855 21.8410671265980447   T   T   T
  4.4360952356658192  7.9847619023324858 21.8410671265980447   T   T   T
