Mo B  Mo B  Mo B  Mo B  Mo B  Mo B  Mo B  Mo B  Mo B  Mo B  Mo B  Mo Au Mo B  Mo B  Mo B  Mo B  Mo B 
 1.0000000000000000
     6.2199999999999998    0.0000000000000000    0.0000000000000000
     0.0000000000000000   33.8999999999999986    0.0000000000000000
     0.0000000000000000    0.0000000000000000   26.8849999999999980
 Mo  B   Mo  B   Mo  B   Mo  B   Mo  B   Mo  B   Mo  B   Mo  B   Mo  B   Mo  B   Mo  B   Mo  Au  Mo  B   Mo  B   Mo  B   Mo  B   Mo  B  
   8   8   8   8   8   8   8   8   8   8   8   8   8   8   8   8   8   8   8   8   8   8   3   1   4   8   8   8   8   8   8   8   8   8
Selective dynamics
Cartesian
  0.0000000000000000  3.3391499999999996  8.0000000000000000   F   F   F
  1.5549999999999999  7.5766499999999981  9.5549999999999997   F   F   F
  1.5549999999999999 11.8141499999999926  8.0000000000000000   F   F   F
  0.0000000000000000 16.0516499999999951  9.5549999999999997   F   F   F
  0.0000000000000000 13.6108499999999957  8.0000000000000000   F   F   F
  1.5549999999999999  9.3733499999999985  9.5549999999999997   F   F   F
  1.5549999999999999  5.1358499999999987  8.0000000000000000   F   F   F
  0.0000000000000000  0.8983499999999996  9.5549999999999997   F   F   F
  0.0000000000000000  5.8985999999999974  8.0000000000000000   F   F   F
  1.5549999999999999 10.1360999999999972  9.5549999999999997   F   F   F
  1.5549999999999999 14.3735999999999944  8.0000000000000000   F   F   F
  0.0000000000000000  1.6610999999999998  9.5549999999999997   F   F   F
  0.0000000000000000 11.0513999999999939  8.0000000000000000   F   F   F
  1.5549999999999999  6.8138999999999994  9.5549999999999997   F   F   F
  1.5549999999999999  2.5763999999999996  8.0000000000000000   F   F   F
  0.0000000000000000 15.2888999999999964  9.5549999999999997   F   F   F
  0.0000000000000000  3.3391499999999996 11.1099999999999994   F   F   F
  1.5549999999999999  7.5766499999999981 12.6649999999999991   F   F   F
  1.5549999999999999 11.8141499999999926 11.1099999999999994   F   F   F
  0.0000000000000000 16.0516499999999951 12.6649999999999991   F   F   F
  0.0000000000000000 13.6108499999999957 11.1099999999999994   F   F   F
  1.5549999999999999  9.3733499999999985 12.6649999999999991   F   F   F
  1.5549999999999999  5.1358499999999987 11.1099999999999994   F   F   F
  0.0000000000000000  0.8983499999999996 12.6649999999999991   F   F   F
  0.0000000000000000  5.8985999999999974 11.1099999999999994   F   F   F
  1.5549999999999999 10.1360999999999972 12.6649999999999991   F   F   F
  1.5549999999999999 14.3735999999999944 11.1099999999999994   F   F   F
  0.0000000000000000  1.6610999999999998 12.6649999999999991   F   F   F
  0.0000000000000000 11.0513999999999939 11.1099999999999994   F   F   F
  1.5549999999999999  6.8138999999999994 12.6649999999999991   F   F   F
  1.5549999999999999  2.5763999999999996 11.1099999999999994   F   F   F
  0.0000000000000000 15.2888999999999964 12.6649999999999991   F   F   F
  0.0000000000000000  3.3391499999999996 14.2199999999999989   T   T   T
  1.5549999999999999  7.5766499999999981 15.7749999999999986   T   T   T
  1.5549999999999999 11.8141499999999926 14.2199999999999989   T   T   T
  0.0000000000000000 16.0516499999999951 15.7749999999999986   T   T   T
  0.0000000000000000 13.6108499999999957 14.2199999999999989   T   T   T
  1.5549999999999999  9.3733499999999985 15.7749999999999986   T   T   T
  1.5549999999999999  5.1358499999999987 14.2199999999999989   T   T   T
  0.0000000000000000  0.8983499999999996 15.7749999999999986   T   T   T
  0.0000000000000000  5.8985999999999974 14.2199999999999989   T   T   T
  1.5549999999999999 10.1360999999999972 15.7749999999999986   T   T   T
  1.5549999999999999 14.3735999999999944 14.2199999999999989   T   T   T
  0.0000000000000000  1.6610999999999998 15.7749999999999986   T   T   T
  0.0000000000000000 11.0513999999999939 14.2199999999999989   T   T   T
  1.5549999999999999  6.8138999999999994 15.7749999999999986   T   T   T
  1.5549999999999999  2.5763999999999996 14.2199999999999989   T   T   T
  0.0000000000000000 15.2888999999999964 15.7749999999999986   T   T   T
  0.0000000000000000  3.3391499999999996 17.3299999999999983   T   T   T
  1.5549999999999999  7.5766499999999981 18.8849999999999980   T   T   T
  1.5549999999999999 11.8141499999999926 17.3299999999999983   T   T   T
  0.0000000000000000 16.0516499999999951 18.8849999999999980   T   T   T
  0.0000000000000000 13.6108499999999957 17.3299999999999983   T   T   T
  1.5549999999999999  9.3733499999999985 18.8849999999999980   T   T   T
  1.5549999999999999  5.1358499999999987 17.3299999999999983   T   T   T
  0.0000000000000000  0.8983499999999996 18.8849999999999980   T   T   T
  0.0000000000000000  5.8985999999999974 17.3299999999999983   T   T   T
  1.5549999999999999 10.1360999999999972 18.8849999999999980   T   T   T
  1.5549999999999999 14.3735999999999944 17.3299999999999983   T   T   T
  0.0000000000000000  1.6610999999999998 18.8849999999999980   T   T   T
  0.0000000000000000 11.0513999999999939 17.3299999999999983   T   T   T
  1.5549999999999999  6.8138999999999994 18.8849999999999980   T   T   T
  1.5549999999999999  2.5763999999999996 17.3299999999999983   T   T   T
  0.0000000000000000 15.2888999999999964 18.8849999999999980   T   T   T
  0.0000000000000000 20.2891499999999994  8.0000000000000000   F   F   F
  1.5549999999999999 24.5266499999999965  9.5549999999999997   F   F   F
  1.5549999999999999 28.7641499999999937  8.0000000000000000   F   F   F
  0.0000000000000000 33.0016499999999979  9.5549999999999997   F   F   F
  0.0000000000000000 30.5608499999999950  8.0000000000000000   F   F   F
  1.5549999999999999 26.3233499999999978  9.5549999999999997   F   F   F
  1.5549999999999999 22.0858499999999971  8.0000000000000000   F   F   F
  0.0000000000000000 17.8483499999999999  9.5549999999999997   F   F   F
  0.0000000000000000 22.8485999999999976  8.0000000000000000   F   F   F
  1.5549999999999999 27.0860999999999947  9.5549999999999997   F   F   F
  1.5549999999999999 31.3235999999999919  8.0000000000000000   F   F   F
  0.0000000000000000 18.6111000000000004  9.5549999999999997   F   F   F
  0.0000000000000000 28.0013999999999932  8.0000000000000000   F   F   F
  1.5549999999999999 23.7638999999999996  9.5549999999999997   F   F   F
  1.5549999999999999 19.5263999999999989  8.0000000000000000   F   F   F
  0.0000000000000000 32.2388999999999939  9.5549999999999997   F   F   F
  0.0000000000000000 20.2891499999999994 11.1099999999999994   F   F   F
  1.5549999999999999 24.5266499999999965 12.6649999999999991   F   F   F
  1.5549999999999999 28.7641499999999937 11.1099999999999994   F   F   F
  0.0000000000000000 33.0016499999999979 12.6649999999999991   F   F   F
  0.0000000000000000 30.5608499999999950 11.1099999999999994   F   F   F
  1.5549999999999999 26.3233499999999978 12.6649999999999991   F   F   F
  1.5549999999999999 22.0858499999999971 11.1099999999999994   F   F   F
  0.0000000000000000 17.8483499999999999 12.6649999999999991   F   F   F
  0.0000000000000000 22.8485999999999976 11.1099999999999994   F   F   F
  1.5549999999999999 27.0860999999999947 12.6649999999999991   F   F   F
  1.5549999999999999 31.3235999999999919 11.1099999999999994   F   F   F
  0.0000000000000000 18.6111000000000004 12.6649999999999991   F   F   F
  0.0000000000000000 28.0013999999999932 11.1099999999999994   F   F   F
  1.5549999999999999 23.7638999999999996 12.6649999999999991   F   F   F
  1.5549999999999999 19.5263999999999989 11.1099999999999994   F   F   F
  0.0000000000000000 32.2388999999999939 12.6649999999999991   F   F   F
  0.0000000000000000 20.2891499999999994 14.2199999999999989   T   T   T
  1.5549999999999999 24.5266499999999965 15.7749999999999986   T   T   T
  1.5549999999999999 28.7641499999999937 14.2199999999999989   T   T   T
  0.0000000000000000 33.0016499999999979 15.7749999999999986   T   T   T
  0.0000000000000000 30.5608499999999950 14.2199999999999989   T   T   T
  1.5549999999999999 26.3233499999999978 15.7749999999999986   T   T   T
  1.5549999999999999 22.0858499999999971 14.2199999999999989   T   T   T
  0.0000000000000000 17.8483499999999999 15.7749999999999986   T   T   T
  0.0000000000000000 22.8485999999999976 14.2199999999999989   T   T   T
  1.5549999999999999 27.0860999999999947 15.7749999999999986   T   T   T
  1.5549999999999999 31.3235999999999919 14.2199999999999989   T   T   T
  0.0000000000000000 18.6111000000000004 15.7749999999999986   T   T   T
  0.0000000000000000 28.0013999999999932 14.2199999999999989   T   T   T
  1.5549999999999999 23.7638999999999996 15.7749999999999986   T   T   T
  1.5549999999999999 19.5263999999999989 14.2199999999999989   T   T   T
  0.0000000000000000 32.2388999999999939 15.7749999999999986   T   T   T
  0.0000000000000000 20.2891499999999994 17.3299999999999983   T   T   T
  1.5549999999999999 24.5266499999999965 18.8849999999999980   T   T   T
  1.5549999999999999 28.7641499999999937 17.3299999999999983   T   T   T
  0.0000000000000000 33.0016499999999979 18.8849999999999980   T   T   T
  0.0000000000000000 30.5608499999999950 17.3299999999999983   T   T   T
  1.5549999999999999 26.3233499999999978 18.8849999999999980   T   T   T
  1.5549999999999999 22.0858499999999971 17.3299999999999983   T   T   T
  0.0000000000000000 17.8483499999999999 18.8849999999999980   T   T   T
  0.0000000000000000 22.8485999999999976 17.3299999999999983   T   T   T
  1.5549999999999999 27.0860999999999947 18.8849999999999980   T   T   T
  1.5549999999999999 31.3235999999999919 17.3299999999999983   T   T   T
  0.0000000000000000 18.6111000000000004 18.8849999999999980   T   T   T
  0.0000000000000000 28.0013999999999932 17.3299999999999983   T   T   T
  1.5549999999999999 23.7638999999999996 18.8849999999999980   T   T   T
  1.5549999999999999 19.5263999999999989 17.3299999999999983   T   T   T
  0.0000000000000000 32.2388999999999939 18.8849999999999980   T   T   T
  3.1099999999999999  3.3391499999999996  8.0000000000000000   F   F   F
  4.6650000000000000  7.5766499999999981  9.5549999999999997   F   F   F
  4.6650000000000000 11.8141499999999926  8.0000000000000000   F   F   F
  3.1099999999999999 16.0516499999999951  9.5549999999999997   F   F   F
  3.1099999999999999 13.6108499999999957  8.0000000000000000   F   F   F
  4.6650000000000000  9.3733499999999985  9.5549999999999997   F   F   F
  4.6650000000000000  5.1358499999999987  8.0000000000000000   F   F   F
  3.1099999999999999  0.8983499999999996  9.5549999999999997   F   F   F
  3.1099999999999999  5.8985999999999974  8.0000000000000000   F   F   F
  4.6650000000000000 10.1360999999999972  9.5549999999999997   F   F   F
  4.6650000000000000 14.3735999999999944  8.0000000000000000   F   F   F
  3.1099999999999999  1.6610999999999998  9.5549999999999997   F   F   F
  3.1099999999999999 11.0513999999999939  8.0000000000000000   F   F   F
  4.6650000000000000  6.8138999999999994  9.5549999999999997   F   F   F
  4.6650000000000000  2.5763999999999996  8.0000000000000000   F   F   F
  3.1099999999999999 15.2888999999999964  9.5549999999999997   F   F   F
  3.1099999999999999  3.3391499999999996 11.1099999999999994   F   F   F
  4.6650000000000000  7.5766499999999981 12.6649999999999991   F   F   F
  4.6650000000000000 11.8141499999999926 11.1099999999999994   F   F   F
  3.1099999999999999 16.0516499999999951 12.6649999999999991   F   F   F
  3.1099999999999999 13.6108499999999957 11.1099999999999994   F   F   F
  4.6650000000000000  9.3733499999999985 12.6649999999999991   F   F   F
  4.6650000000000000  5.1358499999999987 11.1099999999999994   F   F   F
  3.1099999999999999  0.8983499999999996 12.6649999999999991   F   F   F
  3.1099999999999999  5.8985999999999974 11.1099999999999994   F   F   F
  4.6650000000000000 10.1360999999999972 12.6649999999999991   F   F   F
  4.6650000000000000 14.3735999999999944 11.1099999999999994   F   F   F
  3.1099999999999999  1.6610999999999998 12.6649999999999991   F   F   F
  3.1099999999999999 11.0513999999999939 11.1099999999999994   F   F   F
  4.6650000000000000  6.8138999999999994 12.6649999999999991   F   F   F
  4.6650000000000000  2.5763999999999996 11.1099999999999994   F   F   F
  3.1099999999999999 15.2888999999999964 12.6649999999999991   F   F   F
  3.1099999999999999  3.3391499999999996 14.2199999999999989   T   T   T
  4.6650000000000000  7.5766499999999981 15.7749999999999986   T   T   T
  4.6650000000000000 11.8141499999999926 14.2199999999999989   T   T   T
  3.1099999999999999 16.0516499999999951 15.7749999999999986   T   T   T
  3.1099999999999999 13.6108499999999957 14.2199999999999989   T   T   T
  4.6650000000000000  9.3733499999999985 15.7749999999999986   T   T   T
  4.6650000000000000  5.1358499999999987 14.2199999999999989   T   T   T
  3.1099999999999999  0.8983499999999996 15.7749999999999986   T   T   T
  3.1099999999999999  5.8985999999999974 14.2199999999999989   T   T   T
  4.6650000000000000 10.1360999999999972 15.7749999999999986   T   T   T
  4.6650000000000000 14.3735999999999944 14.2199999999999989   T   T   T
  3.1099999999999999  1.6610999999999998 15.7749999999999986   T   T   T
  3.1099999999999999 11.0513999999999939 14.2199999999999989   T   T   T
  4.6650000000000000  6.8138999999999994 15.7749999999999986   T   T   T
  4.6650000000000000  2.5763999999999996 14.2199999999999989   T   T   T
  3.1099999999999999 15.2888999999999964 15.7749999999999986   T   T   T
  3.1099999999999999  3.3391499999999996 17.3299999999999983   T   T   T
  4.6650000000000000  7.5766499999999981 18.8849999999999980   T   T   T
  4.6650000000000000 11.8141499999999926 17.3299999999999983   T   T   T
  3.1099999999999999 16.0516499999999951 18.8849999999999980   T   T   T
  3.1099999999999999 13.6108499999999957 17.3299999999999983   T   T   T
  4.6650000000000000  9.3733499999999985 18.8849999999999980   T   T   T
  4.6650000000000000  5.1358499999999987 17.3299999999999983   T   T   T
  3.1099999999999999  0.8983499999999996 18.8849999999999980   T   T   T
  3.1099999999999999  5.8985999999999974 17.3299999999999983   T   T   T
  4.6650000000000000 10.1360999999999972 18.8849999999999980   T   T   T
  4.6650000000000000 14.3735999999999944 17.3299999999999983   T   T   T
  3.1099999999999999  1.6610999999999998 18.8849999999999980   T   T   T
  3.1099999999999999 11.0513999999999939 17.3299999999999983   T   T   T
  4.6650000000000000  6.8138999999999994 18.8849999999999980   T   T   T
  4.6650000000000000  2.5763999999999996 17.3299999999999983   T   T   T
  3.1099999999999999 15.2888999999999964 18.8849999999999980   T   T   T
  3.1099999999999999 20.2891499999999994  8.0000000000000000   F   F   F
  4.6650000000000000 24.5266499999999965  9.5549999999999997   F   F   F
  4.6650000000000000 28.7641499999999937  8.0000000000000000   F   F   F
  3.1099999999999999 33.0016499999999979  9.5549999999999997   F   F   F
  3.1099999999999999 30.5608499999999950  8.0000000000000000   F   F   F
  4.6650000000000000 26.3233499999999978  9.5549999999999997   F   F   F
  4.6650000000000000 22.0858499999999971  8.0000000000000000   F   F   F
  3.1099999999999999 17.8483499999999999  9.5549999999999997   F   F   F
  3.1099999999999999 22.8485999999999976  8.0000000000000000   F   F   F
  4.6650000000000000 27.0860999999999947  9.5549999999999997   F   F   F
  4.6650000000000000 31.3235999999999919  8.0000000000000000   F   F   F
  3.1099999999999999 18.6111000000000004  9.5549999999999997   F   F   F
  3.1099999999999999 28.0013999999999932  8.0000000000000000   F   F   F
  4.6650000000000000 23.7638999999999996  9.5549999999999997   F   F   F
  4.6650000000000000 19.5263999999999989  8.0000000000000000   F   F   F
  3.1099999999999999 32.2388999999999939  9.5549999999999997   F   F   F
  3.1099999999999999 20.2891499999999994 11.1099999999999994   F   F   F
  4.6650000000000000 24.5266499999999965 12.6649999999999991   F   F   F
  4.6650000000000000 28.7641499999999937 11.1099999999999994   F   F   F
  3.1099999999999999 33.0016499999999979 12.6649999999999991   F   F   F
  3.1099999999999999 30.5608499999999950 11.1099999999999994   F   F   F
  4.6650000000000000 26.3233499999999978 12.6649999999999991   F   F   F
  4.6650000000000000 22.0858499999999971 11.1099999999999994   F   F   F
  3.1099999999999999 17.8483499999999999 12.6649999999999991   F   F   F
  3.1099999999999999 22.8485999999999976 11.1099999999999994   F   F   F
  4.6650000000000000 27.0860999999999947 12.6649999999999991   F   F   F
  4.6650000000000000 31.3235999999999919 11.1099999999999994   F   F   F
  3.1099999999999999 18.6111000000000004 12.6649999999999991   F   F   F
  3.1099999999999999 28.0013999999999932 11.1099999999999994   F   F   F
  4.6650000000000000 23.7638999999999996 12.6649999999999991   F   F   F
  4.6650000000000000 19.5263999999999989 11.1099999999999994   F   F   F
  3.1099999999999999 32.2388999999999939 12.6649999999999991   F   F   F
  3.1099999999999999 20.2891499999999994 14.2199999999999989   T   T   T
  4.6650000000000000 24.5266499999999965 15.7749999999999986   T   T   T
  4.6650000000000000 28.7641499999999937 14.2199999999999989   T   T   T
  3.1099999999999999 33.0016499999999979 15.7749999999999986   T   T   T
  3.1099999999999999 30.5608499999999950 14.2199999999999989   T   T   T
  4.6650000000000000 26.3233499999999978 15.7749999999999986   T   T   T
  4.6650000000000000 22.0858499999999971 14.2199999999999989   T   T   T
  3.1099999999999999 17.8483499999999999 15.7749999999999986   T   T   T
  3.1099999999999999 22.8485999999999976 14.2199999999999989   T   T   T
  4.6650000000000000 27.0860999999999947 15.7749999999999986   T   T   T
  4.6650000000000000 31.3235999999999919 14.2199999999999989   T   T   T
  3.1099999999999999 18.6111000000000004 15.7749999999999986   T   T   T
  3.1099999999999999 28.0013999999999932 14.2199999999999989   T   T   T
  4.6650000000000000 23.7638999999999996 15.7749999999999986   T   T   T
  4.6650000000000000 19.5263999999999989 14.2199999999999989   T   T   T
  3.1099999999999999 32.2388999999999939 15.7749999999999986   T   T   T
  3.1099999999999999 20.2891499999999994 17.3299999999999983   T   T   T
  4.6650000000000000 24.5266499999999965 18.8849999999999980   T   T   T
  4.6650000000000000 28.7641499999999937 17.3299999999999983   T   T   T
  3.1099999999999999 33.0016499999999979 18.8849999999999980   T   T   T
  3.1099999999999999 30.5608499999999950 17.3299999999999983   T   T   T
  4.6650000000000000 26.3233499999999978 18.8849999999999980   T   T   T
  4.6650000000000000 22.0858499999999971 17.3299999999999983   T   T   T
  3.1099999999999999 17.8483499999999999 18.8849999999999980   T   T   T
  3.1099999999999999 22.8485999999999976 17.3299999999999983   T   T   T
  4.6650000000000000 27.0860999999999947 18.8849999999999980   T   T   T
  4.6650000000000000 31.3235999999999919 17.3299999999999983   T   T   T
  3.1099999999999999 18.6111000000000004 18.8849999999999980   T   T   T
  3.1099999999999999 28.0013999999999932 17.3299999999999983   T   T   T
  4.6650000000000000 23.7638999999999996 18.8849999999999980   T   T   T
  4.6650000000000000 19.5263999999999989 17.3299999999999983   T   T   T
  3.1099999999999999 32.2388999999999939 18.8849999999999980   T   T   T
