C  Ni
 1.0000000000000000
     9.8399999999999999    0.0000000000000000    0.0000000000000000
    -4.9199999999999999    8.5216899732388764    0.0000000000000000
     0.0000000000000000    0.0000000000000000   20.0000000000000000
 C   Ni 
  32   4
Selective dynamics
Cartesian
  0.0000000000000000  0.0000000000000000 10.0000000000000000   F   F   F
  0.0000000000000000  1.4202816622064793 10.0000000000000000   F   F   F
 -1.2300000000000000  2.1304224933097191 10.0000000000000000   F   F   F
 -1.2300000000000000  3.5507041555161987 10.0000000000000000   F   F   F
 -2.4600000000000000  4.2608449866194382 10.0000000000000000   F   F   F
 -2.4600000000000000  5.6811266488259173 10.0000000000000000   F   F   F
 -3.6899999999999999  6.3912674799291569 10.0000000000000000   F   F   F
 -3.6899999999999999  7.8115491421356360 10.0000000000000000   F   F   F
  2.4600000000000000  0.0000000000000000 10.0000000000000000   F   F   F
  2.4600000000000000  1.4202816622064793 10.0000000000000000   F   F   F
  1.2300000000000000  2.1304224933097191 10.0000000000000000   F   F   F
  1.2300000000000000  3.5507041555161987 10.0000000000000000   F   F   F
  0.0000000000000000  4.2608449866194382 10.0000000000000000   F   F   F
  0.0000000000000000  5.6811266488259173 10.0000000000000000   F   F   F
 -1.2300000000000000  6.3912674799291569 10.0000000000000000   F   F   F
 -1.2300000000000000  7.8115491421356360 10.0000000000000000   F   F   F
  4.9199999999999999  0.0000000000000000 10.0000000000000000   F   F   F
  4.9199999999999999  1.4202816622064793 10.0000000000000000   F   F   F
  3.6899999999999999  2.1304224933097191 10.0000000000000000   F   F   F
  3.6899999999999999  3.5507041555161987 10.0000000000000000   F   F   F
  2.4600000000000000  4.2608449866194382 10.0000000000000000   F   F   F
  2.4600000000000000  5.6811266488259173 10.0000000000000000   F   F   F
  1.2300000000000000  6.3912674799291569 10.0000000000000000   F   F   F
  1.2300000000000000  7.8115491421356360 10.0000000000000000   F   F   F
  7.3799999999999999  0.0000000000000000 10.0000000000000000   F   F   F
  7.3799999999999999  1.4202816622064793 10.0000000000000000   F   F   F
  6.1500000000000004  2.1304224933097191 10.0000000000000000   F   F   F
  6.1500000000000004  3.5507041555161987 10.0000000000000000   F   F   F
  4.9199999999999999  4.2608449866194382 10.0000000000000000   F   F   F
  4.9199999999999999  5.6811266488259173 10.0000000000000000   F   F   F
  3.6899999999999999  6.3912674799291569 10.0000000000000000   F   F   F
  3.6899999999999999  7.8115491421356360 10.0000000000000000   F   F   F
  0.6450000000000000  2.7057745710678178 11.8000000000000007   T   T   T
  0.6450000000000000  5.1057745710678182 11.8000000000000007   T   T   T
  3.0449999999999999  2.7057745710678178 11.8000000000000007   T   T   T
  3.0449999999999999  5.1057745710678182 11.8000000000000007   T   T   T
