Ni Mo C  Mo C  Mo C  Mo C  Mo C  Mo C  Mo C  Mo C  Ir
 1.0000000000000000
     7.4670476093299420    0.0000000000000000    0.0000000000000000
     3.7335238046649710    6.4666529209475900    0.0000000000000000
     0.0000000000000000    0.0000000000000000   29.1425700083754364
 Ni  Mo  C   Mo  C   Mo  C   Mo  C   Mo  C   Mo  C   Mo  C   Mo  C   Ir 
  36   4   2   4   2   4   2   4   2   4   2   4   2   4   2   4   2   4
Selective dynamics
Cartesian
  0.0000000000000000  0.0000000000000000  8.0000000000000000   F   F   F
  2.4890158697766473  0.0000000000000000  8.0000000000000000   F   F   F
  4.9780317395532947  0.0000000000000000  8.0000000000000000   F   F   F
  1.2445079348883237  2.1555509736491967  8.0000000000000000   F   F   F
  3.7335238046649710  2.1555509736491967  8.0000000000000000   F   F   F
  6.2225396744416184  2.1555509736491967  8.0000000000000000   F   F   F
  2.4890158697766473  4.3111019472983934  8.0000000000000000   F   F   F
  4.9780317395532947  4.3111019472983934  8.0000000000000000   F   F   F
  7.4670476093299420  4.3111019472983934  8.0000000000000000   F   F   F
  1.2445079348883237  0.7185169912163989 10.0322729475474830   F   F   F
  3.7335238046649706  0.7185169912163989 10.0322729475474830   F   F   F
  6.2225396744416193  0.7185169912163989 10.0322729475474830   F   F   F
  2.4890158697766473  2.8740679648655956 10.0322729475474830   F   F   F
  4.9780317395532947  2.8740679648655956 10.0322729475474830   F   F   F
  7.4670476093299429  2.8740679648655956 10.0322729475474830   F   F   F
  3.7335238046649710  5.0296189385147922 10.0322729475474830   F   F   F
  6.2225396744416184  5.0296189385147922 10.0322729475474830   F   F   F
  8.7115555442182657  5.0296189385147922 10.0322729475474830   F   F   F
  0.0000000000000000  1.4370339824327978 12.0645458950949660   T   T   T
  2.4890158697766473  1.4370339824327978 12.0645458950949660   T   T   T
  4.9780317395532947  1.4370339824327978 12.0645458950949660   T   T   T
  1.2445079348883237  3.5925849560819940 12.0645458950949660   T   T   T
  3.7335238046649710  3.5925849560819940 12.0645458950949660   T   T   T
  6.2225396744416184  3.5925849560819940 12.0645458950949660   T   T   T
  2.4890158697766473  5.7481359297311911 12.0645458950949660   T   T   T
  4.9780317395532947  5.7481359297311911 12.0645458950949660   T   T   T
  7.4670476093299420  5.7481359297311911 12.0645458950949660   T   T   T
  0.0000000000000000  0.0000000000000000 14.0968188426424490   T   T   T
  2.4890158697766473  0.0000000000000000 14.0968188426424490   T   T   T
  4.9780317395532947  0.0000000000000000 14.0968188426424490   T   T   T
  1.2445079348883237  2.1555509736491967 14.0968188426424490   T   T   T
  3.7335238046649710  2.1555509736491967 14.0968188426424490   T   T   T
  6.2225396744416184  2.1555509736491967 14.0968188426424490   T   T   T
  2.4890158697766473  4.3111019472983934 14.0968188426424490   T   T   T
  4.9780317395532947  4.3111019472983934 14.0968188426424490   T   T   T
  7.4670476093299420  4.3111019472983934 14.0968188426424490   T   T   T
  0.4878526566024963  0.0470805375479234 16.7813939592157482   T   T   T
  6.5458831928590131  5.1752737671977682 17.0842534070740584   T   T   T
  3.0290152681282603  3.8174616479638885 16.2968188426424483   T   T   T
  4.0047205813332498  1.4048926567818036 17.5688285236473583   T   T   T
  6.0711742541865972  1.4409551413587829 17.2659690757890445   T   T   T
  2.5543063294558435  2.9032143466875762 18.1139755297923202   T   T   T
  7.5215885060640062  5.2694348422936148 19.8099884377988644   T   T   T
  2.6956368117593699  3.4189041337991033 20.1128478856571746   T   T   T
  6.2125047364901231  2.0610920145652236 19.3254133212255645   T   T   T
  4.0047205813332498  6.6272469615274954 20.5974230022304710   T   T   T
  6.0711742541865981  6.6633094461044751 20.2945635543721608   T   T   T
  5.7377957978177090  1.1468447132889104 21.1425700083754364   T   T   T
  4.3380990377021398  7.0258044756922811 16.7813939592157482   T   T   T
 10.3961295739586568 12.1539977053421246 17.0842534070740584   T   T   T
  6.8792616492279040 10.7961855861082459 16.2968188426424483   T   T   T
  7.8549669624328935  8.3836165949261616 17.5688285236473583   T   T   T
  9.9214206352862409  8.4196790795031404 17.2659690757890445   T   T   T
  6.4045527105554871  9.8819382848319339 18.1139755297923202   T   T   T
 11.3718348871636508 12.2481587804379721 19.8099884377988644   T   T   T
  6.5458831928590140 10.3976280719434602 20.1128478856571746   T   T   T
 10.0627511175897659  9.0398159527095814 19.3254133212255645   T   T   T
  7.8549669624328935 13.6059708996718527 20.5974230022304710   T   T   T
  9.9214206352862426 13.6420333842488333 20.2945635543721608   T   T   T
  9.5880421789173518  8.1255686514332677 21.1425700083754364   T   T   T
  7.5215885060640035  0.0470805375479234 16.7813939592157482   T   T   T
 13.5796190423205196  5.1752737671977682 17.0842534070740584   T   T   T
 10.0627511175897677  3.8174616479638885 16.2968188426424483   T   T   T
 11.0384564307947564  1.4048926567818036 17.5688285236473583   T   T   T
 13.1049101036481055  1.4409551413587829 17.2659690757890445   T   T   T
  9.5880421789173518  2.9032143466875762 18.1139755297923202   T   T   T
 14.5553243555255136  5.2694348422936148 19.8099884377988644   T   T   T
  9.7293726612208769  3.4189041337991033 20.1128478856571746   T   T   T
 13.2462405859516306  2.0610920145652236 19.3254133212255645   T   T   T
 11.0384564307947564  6.6272469615274954 20.5974230022304710   T   T   T
 13.1049101036481055  6.6633094461044751 20.2945635543721608   T   T   T
 12.7715316472792164  1.1468447132889104 21.1425700083754364   T   T   T
 11.3718348871636490  7.0258044756922811 16.7813939592157482   T   T   T
 17.4298654234201642 12.1539977053421246 17.0842534070740584   T   T   T
 13.9129974986894123 10.7961855861082459 16.2968188426424483   T   T   T
 14.8887028118944009  8.3836165949261616 17.5688285236473583   T   T   T
 16.9551564847477501  8.4196790795031404 17.2659690757890445   T   T   T
 13.4382885600169963  9.8819382848319339 18.1139755297923202   T   T   T
 18.4055707366251582 12.2481587804379721 19.8099884377988644   T   T   T
 13.5796190423205214 10.3976280719434602 20.1128478856571746   T   T   T
 17.0964869670512769  9.0398159527095814 19.3254133212255645   T   T   T
 14.8887028118944009 13.6059708996718527 20.5974230022304710   T   T   T
 16.9551564847477501 13.6420333842488333 20.2945635543721608   T   T   T
 16.6217780283788628  8.1255686514332677 21.1425700083754364   T   T   T
  6.2591487356698510  3.8522858234064827 22.9425700083754371   T   T   T
  6.2591487356698510  6.2522858234064831 22.9425700083754371   T   T   T
  8.6591487356698504  3.8522858234064827 22.9425700083754371   T   T   T
  8.6591487356698504  6.2522858234064831 22.9425700083754371   T   T   T
