Mo P  Mo P  Mo P  Mo P  Mo P  Mo P  Mo P  Mo P  Mo P  Mo P  Mo P  Mo P  Mo P  Mo P  Mo P  Mo P 
 1.0000000000000000
     9.1641038841776563    0.0000000000000000    0.0000000000000000
     4.5820519420888290    7.9363467666174961    0.0000000000000000
     0.0000000000000000    0.0000000000000000   22.5471520526103575
 Mo  P   Mo  P   Mo  P   Mo  P   Mo  P   Mo  P   Mo  P   Mo  P   Mo  P   Mo  P   Mo  P   Mo  P   Mo  P   Mo  P   Mo  P   Mo  P  
   1   1   1   1   1   1   1   1   1   1   1   1   1   1   1   1   1   1   1   1   1   1   1   1   1   1   1   1   1   1   1   1
Selective dynamics
Cartesian
  0.0000000000000000  0.0000000000000000  8.0000000000000000   F   F   F
  2.2910259710444141  1.3227244611029159  8.9353074360871929   F   F   F
  4.5820519420888282  2.6454489222058322  9.8706148721743894   F   F   F
  4.5820519420888273  0.0000000000000000 10.8059223082615823   F   F   F
  2.2910259710444141  1.3227244611029161 11.7412297443487752   T   T   T
  4.5820519420888273  2.6454489222058313 12.6765371804359717   T   T   T
  4.5820519420888264  0.0000000000000000 13.6118446165231646   T   T   T
  2.2910259710444110  1.3227244611029165 14.5471520526103575   T   T   T
  2.2910259710444145  3.9681733833087480  8.0000000000000000   F   F   F
  4.5820519420888282  5.2908978444116634  8.9353074360871929   F   F   F
  6.8730779131332422  6.6136223055145802  9.8706148721743894   F   F   F
  6.8730779131332422  3.9681733833087480 10.8059223082615823   F   F   F
  4.5820519420888282  5.2908978444116643 11.7412297443487752   T   T   T
  6.8730779131332422  6.6136223055145793 12.6765371804359717   T   T   T
  6.8730779131332405  3.9681733833087480 13.6118446165231646   T   T   T
  4.5820519420888255  5.2908978444116643 14.5471520526103575   T   T   T
  4.5820519420888282  0.0000000000000000  8.0000000000000000   F   F   F
  6.8730779131332422  1.3227244611029159  8.9353074360871929   F   F   F
  9.1641038841776563  2.6454489222058322  9.8706148721743894   F   F   F
  9.1641038841776563  0.0000000000000000 10.8059223082615823   F   F   F
  6.8730779131332422  1.3227244611029161 11.7412297443487752   T   T   T
  9.1641038841776563  2.6454489222058313 12.6765371804359717   T   T   T
  9.1641038841776545  0.0000000000000000 13.6118446165231646   T   T   T
  6.8730779131332387  1.3227244611029165 14.5471520526103575   T   T   T
  6.8730779131332422  3.9681733833087480  8.0000000000000000   F   F   F
  9.1641038841776563  5.2908978444116634  8.9353074360871929   F   F   F
 11.4551298552220704  6.6136223055145802  9.8706148721743894   F   F   F
 11.4551298552220686  3.9681733833087480 10.8059223082615823   F   F   F
  9.1641038841776563  5.2908978444116643 11.7412297443487752   T   T   T
 11.4551298552220686  6.6136223055145793 12.6765371804359717   T   T   T
 11.4551298552220686  3.9681733833087480 13.6118446165231646   T   T   T
  9.1641038841776528  5.2908978444116643 14.5471520526103575   T   T   T
