Mo C  Mo C  Mo C  Mo C  Mo C  Mo C  Mo C  Mo C  Mo C  Mo C  Mo C  Mo C  Mo C  Mo C  Mo C  Mo C  Mo C  Mo C  Mo C  Mo C  Mo C  Mo C  Mo C  Mo C  Mo C  Mo C  Mo C  Mo C  Mo C  Mo C  Mo C  Mo C  Mo C  Mo C  Mo C  Mo C  Mo C  Mo C  Mo C  Mo C  Mo C  Mo C  Mo C  Mo C  Mo C  Mo C  Mo C  Mo C  Mo C  Mo C  Mo C  Mo C  Mo C  Mo C  Mo C  Mo C  Mo C  Mo C  Mo C  Mo C  Mo C  Mo C  Mo C  Mo C 
 1.0000000000000000
    28.1349433978460297    0.0000000000000000    0.0000000000000000
    15.4009855243985747   27.9148957525774293    0.0000000000000000
     0.0000000000000000    0.0000000000000000   30.9029401228992171
 Mo  C   Mo  C   Mo  C   Mo  C   Mo  C   Mo  C   Mo  C   Mo  C   Mo  C   Mo  C   Mo  C   Mo  C   Mo  C   Mo  C   Mo  C   Mo  C   Mo  C   Mo  C   Mo  C   Mo  C   Mo  C   Mo  C   Mo  C   Mo  C   Mo  C   Mo  C   Mo  C   Mo  C   Mo  C   Mo  C   Mo  C   Mo  C   Mo  C   Mo  C   Mo  C   Mo  C   Mo  C   Mo  C   Mo  C   Mo  C   Mo  C   Mo  C   Mo  C   Mo  C   Mo  C   Mo  C   Mo  C   Mo  C   Mo  C   Mo  C   Mo  C   Mo  C   Mo  C   Mo  C   Mo  C   Mo  C   Mo  C   Mo  C   Mo  C   Mo  C   Mo  C   Mo  C   Mo  C   Mo  C  
   4   2   4   2   4   2   4   2   4   2   4   2   4   2   4   2   4   2   4   2   4   2   4   2   4   2   4   2   4   2   4   2   4   2   4   2   4   2   4   2   4   2   4   2   4   2   4   2   4   2   4   2   4   2   4   2   4   2   4   2   4   2   4   2   4   2   4   2   4   2   4   2   4   2   4   2   4   2   4   2   4   2   4   2   4   2   4   2   4   2   4   2   4   2   4   2   4   2   4   2   4   2   4   2   4   2   4   2   4   2   4   2   4   2   4   2   4   2   4   2   4   2   4   2   4   2   4   2
Selective dynamics
Cartesian
  0.4878526566024939  0.0470805375479220 10.4845751165732981   F   F   F
  6.5458831928590122  5.1752737671977682 10.7874345644316101   F   F   F
  3.0290152681282585  3.8174616479638881 10.0000000000000000   F   F   F
  4.0047205813332489  1.4048926567818030 11.2720096810049082   F   F   F
  6.0711742541865963  1.4409551413587820 10.9691502331465962   F   F   F
  2.5543063294558430  2.9032143466875748 11.8171566871498701   F   F   F
  7.5215885060640026  5.2694348422936130 13.5131695951564126   F   F   F
  2.6956368117593676  3.4189041337991024 13.8160290430147263   F   F   F
  6.2125047364901222  2.0610920145652214 13.0285944785831145   F   F   F
  4.0047205813332489  6.6272469615274945 14.3006041595880227   F   F   F
  6.0711742541865954  6.6633094461044733 13.9977447117297107   F   F   F
  5.7377957978177063  1.1468447132889081 14.8457511657329846   F   F   F
  3.6713421249643559  3.5130652088949468 16.5417640737395288   T   T   T
  5.8791262801212314  1.6625345004004357 16.8446235215978426   T   T   T
  2.3622583553904763  0.3047223811665549 16.0571889571662290   T   T   T
  7.1882100496951100  4.8708773281288273 17.3291986381711354   T   T   T
  9.2546637225484591  4.9069398127058061 17.0263391903128287   T   T   T
  5.7377957978177054  6.3691990180346005 17.8743456443161008   T   T   T
  6.8548315933262218  1.7566955754962794 19.5703585523226451   T   T   T
  5.8791262801212305  6.8848888051461268 19.8732180001809553   T   T   T
  9.3959942048519842  5.5270766859122462 19.0857834357493417   T   T   T
  3.3379636685954668  3.1145076947301615 20.3577931167542516   T   T   T
  5.4044173414488119  3.1505701793071408 20.0549336688959414   T   T   T
  8.9212852661795701  4.6128293846359325 20.9029401228992171   T   T   T
  4.3380990377021380  7.0258044756922793 10.4845751165732981   F   F   F
 10.3961295739586568 12.1539977053421246 10.7874345644316101   F   F   F
  6.8792616492279022 10.7961855861082459 10.0000000000000000   F   F   F
  7.8549669624328926  8.3836165949261598 11.2720096810049082   F   F   F
  9.9214206352862391  8.4196790795031387 10.9691502331465962   F   F   F
  6.4045527105554871  9.8819382848319322 11.8171566871498701   F   F   F
 11.3718348871636472 12.2481587804379703 13.5131695951564126   F   F   F
  6.5458831928590113 10.3976280719434602 13.8160290430147263   F   F   F
 10.0627511175897659  9.0398159527095778 13.0285944785831145   F   F   F
  7.8549669624328926 13.6059708996718527 14.3006041595880227   F   F   F
  9.9214206352862391 13.6420333842488297 13.9977447117297107   F   F   F
  9.5880421789173500  8.1255686514332659 14.8457511657329846   F   F   F
  7.5215885060639991 10.4917891470393041 16.5417640737395288   T   T   T
  9.7293726612208751  8.6412584385447921 16.8446235215978426   T   T   T
  6.2125047364901196  7.2834463193109125 16.0571889571662290   T   T   T
 11.0384564307947528 11.8496012662731847 17.3291986381711354   T   T   T
 13.1049101036481019 11.8856637508501635 17.0263391903128287   T   T   T
  9.5880421789173482 13.3479229561789587 17.8743456443161008   T   T   T
 10.7050779744258655  8.7354195136406361 19.5703585523226451   T   T   T
  9.7293726612208751 13.8636127432904850 19.8732180001809553   T   T   T
 13.2462405859516288 12.5058006240566044 19.0857834357493417   T   T   T
  7.1882100496951100 10.0932316328745184 20.3577931167542516   T   T   T
  9.2546637225484556 10.1292941174514972 20.0549336688959414   T   T   T
 12.7715316472792146 11.5915533227802889 20.9029401228992171   T   T   T
  8.1883454188017808 14.0045284138366366 10.4845751165732981   F   F   F
 14.2463759550582996 19.1327216434864837 10.7874345644316101   F   F   F
 10.7295080303275459 17.7749095242526032 10.0000000000000000   F   F   F
 11.7052133435325363 15.3623405330705172 11.2720096810049082   F   F   F
 13.7716670163858836 15.3984030176474960 10.9691502331465962   F   F   F
 10.2547990916551299 16.8606622229762877 11.8171566871498701   F   F   F
 15.2220812682632900 19.2268827185823277 13.5131695951564126   F   F   F
 10.3961295739586550 17.3763520100878175 13.8160290430147263   F   F   F
 13.9129974986894105 16.0185398908539369 13.0285944785831145   F   F   F
 11.7052133435325363 20.5846948378162082 14.3006041595880227   F   F   F
 13.7716670163858836 20.6207573223931888 13.9977447117297107   F   F   F
 13.4382885600169928 15.1042925895776232 14.8457511657329846   F   F   F
 11.3718348871636437 17.4705130851836614 16.5417640737395288   T   T   T
 13.5796190423205196 15.6199823766891512 16.8446235215978426   T   T   T
 10.0627511175897641 14.2621702574552689 16.0571889571662290   T   T   T
 14.8887028118943974 18.8283252044175420 17.3291986381711354   T   T   T
 16.9551564847477465 18.8643876889945190 17.0263391903128287   T   T   T
 13.4382885600169928 20.3266468943233143 17.8743456443161008   T   T   T
 14.5553243555255101 15.7141434517849934 19.5703585523226451   T   T   T
 13.5796190423205179 20.8423366814348405 19.8732180001809553   T   T   T
 17.0964869670512698 19.4845245622009600 19.0857834357493417   T   T   T
 11.0384564307947546 17.0719555710188757 20.3577931167542516   T   T   T
 13.1049101036480984 17.1080180555958563 20.0549336688959414   T   T   T
 16.6217780283788557 18.5702772609246480 20.9029401228992171   T   T   T
 12.0385917999014236 20.9832523519809975 10.4845751165732981   F   F   F
 18.0966223361579424 26.1114455816308428 10.7874345644316101   F   F   F
 14.5797544114271886 24.7536334623969623 10.0000000000000000   F   F   F
 15.5554597246321791 22.3410644712148780 11.2720096810049082   F   F   F
 17.6219133974855282 22.3771269557918551 10.9691502331465962   F   F   F
 14.1050454727547727 23.8393861611206503 11.8171566871498701   F   F   F
 19.0723276493629328 26.2056066567266868 13.5131695951564126   F   F   F
 14.2463759550582978 24.3550759482321766 13.8160290430147263   F   F   F
 17.7632438797890515 22.9972638289982960 13.0285944785831145   F   F   F
 15.5554597246321791 27.5634187759605673 14.3006041595880227   F   F   F
 17.6219133974855247 27.5994812605375479 13.9977447117297107   F   F   F
 17.2885349411166374 22.0830165277219805 14.8457511657329846   F   F   F
 15.2220812682632864 24.4492370233280205 16.5417640737395288   T   T   T
 17.4298654234201607 22.5987063148335103 16.8446235215978426   T   T   T
 13.9129974986894069 21.2408941955996298 16.0571889571662290   T   T   T
 18.7389491929940419 25.8070491425619011 17.3291986381711354   T   T   T
 20.8054028658473911 25.8431116271388817 17.0263391903128287   T   T   T
 17.2885349411166374 27.3053708324676734 17.8743456443161008   T   T   T
 18.4055707366251511 22.6928673899293543 19.5703585523226451   T   T   T
 17.4298654234201607 27.8210606195791996 19.8732180001809553   T   T   T
 20.9467333481509144 26.4632485003453191 19.0857834357493417   T   T   T
 14.8887028118943974 24.0506795091632348 20.3577931167542516   T   T   T
 16.9551564847477430 24.0867419937402154 20.0549336688959414   T   T   T
 20.4720244094785002 25.5490011990690071 20.9029401228992171   T   T   T
  7.5215885060640018  0.0470805375479220 10.4845751165732981   F   F   F
 13.5796190423205196  5.1752737671977682 10.7874345644316101   F   F   F
 10.0627511175897659  3.8174616479638881 10.0000000000000000   F   F   F
 11.0384564307947564  1.4048926567818030 11.2720096810049082   F   F   F
 13.1049101036481037  1.4409551413587820 10.9691502331465962   F   F   F
  9.5880421789173500  2.9032143466875748 11.8171566871498701   F   F   F
 14.5553243555255101  5.2694348422936130 13.5131695951564126   F   F   F
  9.7293726612208751  3.4189041337991024 13.8160290430147263   F   F   F
 13.2462405859516288  2.0610920145652214 13.0285944785831145   F   F   F
 11.0384564307947564  6.6272469615274945 14.3006041595880227   F   F   F
 13.1049101036481019  6.6633094461044733 13.9977447117297107   F   F   F
 12.7715316472792146  1.1468447132889081 14.8457511657329846   F   F   F
 10.7050779744258637  3.5130652088949468 16.5417640737395288   T   T   T
 12.9128621295827379  1.6625345004004357 16.8446235215978426   T   T   T
  9.3959942048519842  0.3047223811665549 16.0571889571662290   T   T   T
 14.2219458991566174  4.8708773281288273 17.3291986381711354   T   T   T
 16.2883995720099648  4.9069398127058061 17.0263391903128287   T   T   T
 12.7715316472792129  6.3691990180346005 17.8743456443161008   T   T   T
 13.8885674427877284  1.7566955754962794 19.5703585523226451   T   T   T
 12.9128621295827379  6.8848888051461268 19.8732180001809553   T   T   T
 16.4297300543134916  5.5270766859122462 19.0857834357493417   T   T   T
 10.3716995180569747  3.1145076947301615 20.3577931167542516   T   T   T
 12.4381531909103202  3.1505701793071408 20.0549336688959414   T   T   T
 15.9550211156410775  4.6128293846359325 20.9029401228992171   T   T   T
 11.3718348871636454  7.0258044756922793 10.4845751165732981   F   F   F
 17.4298654234201642 12.1539977053421246 10.7874345644316101   F   F   F
 13.9129974986894105 10.7961855861082459 10.0000000000000000   F   F   F
 14.8887028118944009  8.3836165949261598 11.2720096810049082   F   F   F
 16.9551564847477465  8.4196790795031387 10.9691502331465962   F   F   F
 13.4382885600169946  9.8819382848319322 11.8171566871498701   F   F   F
 18.4055707366251546 12.2481587804379703 13.5131695951564126   F   F   F
 13.5796190423205196 10.3976280719434602 13.8160290430147263   F   F   F
 17.0964869670512734  9.0398159527095778 13.0285944785831145   F   F   F
 14.8887028118944009 13.6059708996718527 14.3006041595880227   F   F   F
 16.9551564847477465 13.6420333842488297 13.9977447117297107   F   F   F
 16.6217780283788592  8.1255686514332659 14.8457511657329846   F   F   F
 14.5553243555255083 10.4917891470393041 16.5417640737395288   T   T   T
 16.7631085106823825  8.6412584385447921 16.8446235215978426   T   T   T
 13.2462405859516288  7.2834463193109125 16.0571889571662290   T   T   T
 18.0721922802562602 11.8496012662731847 17.3291986381711354   T   T   T
 20.1386459531096094 11.8856637508501635 17.0263391903128287   T   T   T
 16.6217780283788557 13.3479229561789587 17.8743456443161008   T   T   T
 17.7388138238873729  8.7354195136406361 19.5703585523226451   T   T   T
 16.7631085106823825 13.8636127432904850 19.8732180001809553   T   T   T
 20.2799764354131362 12.5058006240566044 19.0857834357493417   T   T   T
 14.2219458991566192 10.0932316328745184 20.3577931167542516   T   T   T
 16.2883995720099648 10.1292941174514972 20.0549336688959414   T   T   T
 19.8052674967407221 11.5915533227802889 20.9029401228992171   T   T   T
 15.2220812682632882 14.0045284138366366 10.4845751165732981   F   F   F
 21.2801118045198052 19.1327216434864837 10.7874345644316101   F   F   F
 17.7632438797890515 17.7749095242526032 10.0000000000000000   F   F   F
 18.7389491929940419 15.3623405330705172 11.2720096810049082   F   F   F
 20.8054028658473911 15.3984030176474960 10.9691502331465962   F   F   F
 17.2885349411166374 16.8606622229762877 11.8171566871498701   F   F   F
 22.2558171177247957 19.2268827185823277 13.5131695951564126   F   F   F
 17.4298654234201607 17.3763520100878175 13.8160290430147263   F   F   F
 20.9467333481509179 16.0185398908539369 13.0285944785831145   F   F   F
 18.7389491929940419 20.5846948378162082 14.3006041595880227   F   F   F
 20.8054028658473911 20.6207573223931888 13.9977447117297107   F   F   F
 20.4720244094785002 15.1042925895776232 14.8457511657329846   F   F   F
 18.4055707366251511 17.4705130851836614 16.5417640737395288   T   T   T
 20.6133548917820271 15.6199823766891512 16.8446235215978426   T   T   T
 17.0964869670512698 14.2621702574552689 16.0571889571662290   T   T   T
 21.9224386613559048 18.8283252044175420 17.3291986381711354   T   T   T
 23.9888923342092539 18.8643876889945190 17.0263391903128287   T   T   T
 20.4720244094785002 20.3266468943233143 17.8743456443161008   T   T   T
 21.5890602049870175 15.7141434517849934 19.5703585523226451   T   T   T
 20.6133548917820235 20.8423366814348405 19.8732180001809553   T   T   T
 24.1302228165127772 19.4845245622009600 19.0857834357493417   T   T   T
 18.0721922802562602 17.0719555710188757 20.3577931167542516   T   T   T
 20.1386459531096058 17.1080180555958563 20.0549336688959414   T   T   T
 23.6555138778403631 18.5702772609246480 20.9029401228992171   T   T   T
 19.0723276493629328 20.9832523519809975 10.4845751165732981   F   F   F
 25.1303581856194498 26.1114455816308428 10.7874345644316101   F   F   F
 21.6134902608886961 24.7536334623969623 10.0000000000000000   F   F   F
 22.5891955740936865 22.3410644712148780 11.2720096810049082   F   F   F
 24.6556492469470356 22.3771269557918551 10.9691502331465962   F   F   F
 21.1387813222162819 23.8393861611206503 11.8171566871498701   F   F   F
 26.1060634988244402 26.2056066567266868 13.5131695951564126   F   F   F
 21.2801118045198052 24.3550759482321766 13.8160290430147263   F   F   F
 24.7969797292505589 22.9972638289982960 13.0285944785831145   F   F   F
 22.5891955740936865 27.5634187759605673 14.3006041595880227   F   F   F
 24.6556492469470321 27.5994812605375479 13.9977447117297107   F   F   F
 24.3222707905781448 22.0830165277219805 14.8457511657329846   F   F   F
 22.2558171177247921 24.4492370233280205 16.5417640737395288   T   T   T
 24.4636012728816681 22.5987063148335103 16.8446235215978426   T   T   T
 20.9467333481509144 21.2408941955996298 16.0571889571662290   T   T   T
 25.7726850424555494 25.8070491425619011 17.3291986381711354   T   T   T
 27.8391387153088985 25.8431116271388817 17.0263391903128287   T   T   T
 24.3222707905781448 27.3053708324676734 17.8743456443161008   T   T   T
 25.4393065860866585 22.6928673899293543 19.5703585523226451   T   T   T
 24.4636012728816681 27.8210606195791996 19.8732180001809553   T   T   T
 27.9804691976124218 26.4632485003453191 19.0857834357493417   T   T   T
 21.9224386613559048 24.0506795091632348 20.3577931167542516   T   T   T
 23.9888923342092504 24.0867419937402154 20.0549336688959414   T   T   T
 27.5057602589400076 25.5490011990690071 20.9029401228992171   T   T   T
 14.5553243555255083  0.0470805375479220 10.4845751165732981   F   F   F
 20.6133548917820271  5.1752737671977682 10.7874345644316101   F   F   F
 17.0964869670512734  3.8174616479638881 10.0000000000000000   F   F   F
 18.0721922802562638  1.4048926567818030 11.2720096810049082   F   F   F
 20.1386459531096094  1.4409551413587820 10.9691502331465962   F   F   F
 16.6217780283788592  2.9032143466875748 11.8171566871498701   F   F   F
 21.5890602049870175  5.2694348422936130 13.5131695951564126   F   F   F
 16.7631085106823825  3.4189041337991024 13.8160290430147263   F   F   F
 20.2799764354131362  2.0610920145652214 13.0285944785831145   F   F   F
 18.0721922802562638  6.6272469615274945 14.3006041595880227   F   F   F
 20.1386459531096094  6.6633094461044733 13.9977447117297107   F   F   F
 19.8052674967407221  1.1468447132889081 14.8457511657329846   F   F   F
 17.7388138238873694  3.5130652088949468 16.5417640737395288   T   T   T
 19.9465979790442454  1.6625345004004357 16.8446235215978426   T   T   T
 16.4297300543134916  0.3047223811665549 16.0571889571662290   T   T   T
 21.2556817486181231  4.8708773281288273 17.3291986381711354   T   T   T
 23.3221354214714722  4.9069398127058061 17.0263391903128287   T   T   T
 19.8052674967407185  6.3691990180346005 17.8743456443161008   T   T   T
 20.9223032922492358  1.7566955754962794 19.5703585523226451   T   T   T
 19.9465979790442454  6.8848888051461268 19.8732180001809553   T   T   T
 23.4634659037749991  5.5270766859122462 19.0857834357493417   T   T   T
 17.4054353675184821  3.1145076947301615 20.3577931167542516   T   T   T
 19.4718890403718277  3.1505701793071408 20.0549336688959414   T   T   T
 22.9887569651025849  4.6128293846359325 20.9029401228992171   T   T   T
 18.4055707366251546  7.0258044756922793 10.4845751165732981   F   F   F
 24.4636012728816716 12.1539977053421246 10.7874345644316101   F   F   F
 20.9467333481509179 10.7961855861082459 10.0000000000000000   F   F   F
 21.9224386613559084  8.3836165949261598 11.2720096810049082   F   F   F
 23.9888923342092539  8.4196790795031387 10.9691502331465962   F   F   F
 20.4720244094785038  9.8819382848319322 11.8171566871498701   F   F   F
 25.4393065860866621 12.2481587804379703 13.5131695951564126   F   F   F
 20.6133548917820271 10.3976280719434602 13.8160290430147263   F   F   F
 24.1302228165127808  9.0398159527095778 13.0285944785831145   F   F   F
 21.9224386613559084 13.6059708996718527 14.3006041595880227   F   F   F
 23.9888923342092539 13.6420333842488297 13.9977447117297107   F   F   F
 23.6555138778403666  8.1255686514332659 14.8457511657329846   F   F   F
 21.5890602049870139 10.4917891470393041 16.5417640737395288   T   T   T
 23.7968443601438899  8.6412584385447921 16.8446235215978426   T   T   T
 20.2799764354131362  7.2834463193109125 16.0571889571662290   T   T   T
 25.1059281297177677 11.8496012662731847 17.3291986381711354   T   T   T
 27.1723818025711168 11.8856637508501635 17.0263391903128287   T   T   T
 23.6555138778403631 13.3479229561789587 17.8743456443161008   T   T   T
 24.7725496733488804  8.7354195136406361 19.5703585523226451   T   T   T
 23.7968443601438899 13.8636127432904850 19.8732180001809553   T   T   T
 27.3137122848746436 12.5058006240566044 19.0857834357493417   T   T   T
 21.2556817486181266 10.0932316328745184 20.3577931167542516   T   T   T
 23.3221354214714722 10.1292941174514972 20.0549336688959414   T   T   T
 26.8390033462022295 11.5915533227802889 20.9029401228992171   T   T   T
 22.2558171177247992 14.0045284138366366 10.4845751165732981   F   F   F
 28.3138476539813162 19.1327216434864837 10.7874345644316101   F   F   F
 24.7969797292505625 17.7749095242526032 10.0000000000000000   F   F   F
 25.7726850424555529 15.3623405330705172 11.2720096810049082   F   F   F
 27.8391387153088985 15.3984030176474960 10.9691502331465962   F   F   F
 24.3222707905781483 16.8606622229762877 11.8171566871498701   F   F   F
 29.2895529671863066 19.2268827185823277 13.5131695951564126   F   F   F
 24.4636012728816716 17.3763520100878175 13.8160290430147263   F   F   F
 27.9804691976124253 16.0185398908539369 13.0285944785831145   F   F   F
 25.7726850424555529 20.5846948378162082 14.3006041595880227   F   F   F
 27.8391387153088985 20.6207573223931888 13.9977447117297107   F   F   F
 27.5057602589400112 15.1042925895776232 14.8457511657329846   F   F   F
 25.4393065860866585 17.4705130851836614 16.5417640737395288   T   T   T
 27.6470907412435345 15.6199823766891512 16.8446235215978426   T   T   T
 24.1302228165127808 14.2621702574552689 16.0571889571662290   T   T   T
 28.9561745108174122 18.8283252044175420 17.3291986381711354   T   T   T
 31.0226281836707614 18.8643876889945190 17.0263391903128287   T   T   T
 27.5057602589400076 20.3266468943233143 17.8743456443161008   T   T   T
 28.6227960544485249 15.7141434517849934 19.5703585523226451   T   T   T
 27.6470907412435345 20.8423366814348405 19.8732180001809553   T   T   T
 31.1639586659742882 19.4845245622009600 19.0857834357493417   T   T   T
 25.1059281297177712 17.0719555710188757 20.3577931167542516   T   T   T
 27.1723818025711168 17.1080180555958563 20.0549336688959414   T   T   T
 30.6892497273018741 18.5702772609246480 20.9029401228992171   T   T   T
 26.1060634988244402 20.9832523519809975 10.4845751165732981   F   F   F
 32.1640940350809572 26.1114455816308428 10.7874345644316101   F   F   F
 28.6472261103502035 24.7536334623969623 10.0000000000000000   F   F   F
 29.6229314235551939 22.3410644712148780 11.2720096810049082   F   F   F
 31.6893850964085431 22.3771269557918551 10.9691502331465962   F   F   F
 28.1725171716777893 23.8393861611206503 11.8171566871498701   F   F   F
 33.1397993482859476 26.2056066567266868 13.5131695951564126   F   F   F
 28.3138476539813126 24.3550759482321766 13.8160290430147263   F   F   F
 31.8307155787120664 22.9972638289982960 13.0285944785831145   F   F   F
 29.6229314235551939 27.5634187759605673 14.3006041595880227   F   F   F
 31.6893850964085395 27.5994812605375479 13.9977447117297107   F   F   F
 31.3560066400396522 22.0830165277219805 14.8457511657329846   F   F   F
 29.2895529671862995 24.4492370233280205 16.5417640737395288   T   T   T
 31.4973371223431755 22.5987063148335103 16.8446235215978426   T   T   T
 27.9804691976124218 21.2408941955996298 16.0571889571662290   T   T   T
 32.8064208919170568 25.8070491425619011 17.3291986381711354   T   T   T
 34.8728745647704059 25.8431116271388817 17.0263391903128287   T   T   T
 31.3560066400396522 27.3053708324676734 17.8743456443161008   T   T   T
 32.4730424355481659 22.6928673899293543 19.5703585523226451   T   T   T
 31.4973371223431755 27.8210606195791996 19.8732180001809553   T   T   T
 35.0142050470739292 26.4632485003453191 19.0857834357493417   T   T   T
 28.9561745108174122 24.0506795091632348 20.3577931167542516   T   T   T
 31.0226281836707578 24.0867419937402154 20.0549336688959414   T   T   T
 34.5394961084015151 25.5490011990690071 20.9029401228992171   T   T   T
 21.5890602049870175  0.0470805375479220 10.4845751165732981   F   F   F
 27.6470907412435345  5.1752737671977682 10.7874345644316101   F   F   F
 24.1302228165127808  3.8174616479638881 10.0000000000000000   F   F   F
 25.1059281297177712  1.4048926567818030 11.2720096810049082   F   F   F
 27.1723818025711168  1.4409551413587820 10.9691502331465962   F   F   F
 23.6555138778403666  2.9032143466875748 11.8171566871498701   F   F   F
 28.6227960544485249  5.2694348422936130 13.5131695951564126   F   F   F
 23.7968443601438899  3.4189041337991024 13.8160290430147263   F   F   F
 27.3137122848746436  2.0610920145652214 13.0285944785831145   F   F   F
 25.1059281297177712  6.6272469615274945 14.3006041595880227   F   F   F
 27.1723818025711168  6.6633094461044733 13.9977447117297107   F   F   F
 26.8390033462022295  1.1468447132889081 14.8457511657329846   F   F   F
 24.7725496733488768  3.5130652088949468 16.5417640737395288   T   T   T
 26.9803338285057528  1.6625345004004357 16.8446235215978426   T   T   T
 23.4634659037749991  0.3047223811665549 16.0571889571662290   T   T   T
 28.2894175980796305  4.8708773281288273 17.3291986381711354   T   T   T
 30.3558712709329797  4.9069398127058061 17.0263391903128287   T   T   T
 26.8390033462022259  6.3691990180346005 17.8743456443161008   T   T   T
 27.9560391417107432  1.7566955754962794 19.5703585523226451   T   T   T
 26.9803338285057528  6.8848888051461268 19.8732180001809553   T   T   T
 30.4972017532365065  5.5270766859122462 19.0857834357493417   T   T   T
 24.4391712169799895  3.1145076947301615 20.3577931167542516   T   T   T
 26.5056248898333351  3.1505701793071408 20.0549336688959414   T   T   T
 30.0224928145640924  4.6128293846359325 20.9029401228992171   T   T   T
 25.4393065860866621  7.0258044756922793 10.4845751165732981   F   F   F
 31.4973371223431791 12.1539977053421246 10.7874345644316101   F   F   F
 27.9804691976124253 10.7961855861082459 10.0000000000000000   F   F   F
 28.9561745108174158  8.3836165949261598 11.2720096810049082   F   F   F
 31.0226281836707614  8.4196790795031387 10.9691502331465962   F   F   F
 27.5057602589400112  9.8819382848319322 11.8171566871498701   F   F   F
 32.4730424355481659 12.2481587804379703 13.5131695951564126   F   F   F
 27.6470907412435345 10.3976280719434602 13.8160290430147263   F   F   F
 31.1639586659742882  9.0398159527095778 13.0285944785831145   F   F   F
 28.9561745108174158 13.6059708996718527 14.3006041595880227   F   F   F
 31.0226281836707614 13.6420333842488297 13.9977447117297107   F   F   F
 30.6892497273018741  8.1255686514332659 14.8457511657329846   F   F   F
 28.6227960544485214 10.4917891470393041 16.5417640737395288   T   T   T
 30.8305802096053974  8.6412584385447921 16.8446235215978426   T   T   T
 27.3137122848746436  7.2834463193109125 16.0571889571662290   T   T   T
 32.1396639791792751 11.8496012662731847 17.3291986381711354   T   T   T
 34.2061176520326242 11.8856637508501635 17.0263391903128287   T   T   T
 30.6892497273018705 13.3479229561789587 17.8743456443161008   T   T   T
 31.8062855228103878  8.7354195136406361 19.5703585523226451   T   T   T
 30.8305802096053974 13.8636127432904850 19.8732180001809553   T   T   T
 34.3474481343361475 12.5058006240566044 19.0857834357493417   T   T   T
 28.2894175980796341 10.0932316328745184 20.3577931167542516   T   T   T
 30.3558712709329797 10.1292941174514972 20.0549336688959414   T   T   T
 33.8727391956637405 11.5915533227802889 20.9029401228992171   T   T   T
 29.2895529671863066 14.0045284138366366 10.4845751165732981   F   F   F
 35.3475835034428201 19.1327216434864837 10.7874345644316101   F   F   F
 31.8307155787120699 17.7749095242526032 10.0000000000000000   F   F   F
 32.8064208919170568 15.3623405330705172 11.2720096810049082   F   F   F
 34.8728745647704059 15.3984030176474960 10.9691502331465962   F   F   F
 31.3560066400396558 16.8606622229762877 11.8171566871498701   F   F   F
 36.3232888166478176 19.2268827185823277 13.5131695951564126   F   F   F
 31.4973371223431791 17.3763520100878175 13.8160290430147263   F   F   F
 35.0142050470739363 16.0185398908539369 13.0285944785831145   F   F   F
 32.8064208919170568 20.5846948378162082 14.3006041595880227   F   F   F
 34.8728745647704059 20.6207573223931888 13.9977447117297107   F   F   F
 34.5394961084015151 15.1042925895776232 14.8457511657329846   F   F   F
 32.4730424355481659 17.4705130851836614 16.5417640737395288   T   T   T
 34.6808265907050455 15.6199823766891512 16.8446235215978426   T   T   T
 31.1639586659742882 14.2621702574552689 16.0571889571662290   T   T   T
 35.9899103602789197 18.8283252044175420 17.3291986381711354   T   T   T
 38.0563640331322688 18.8643876889945190 17.0263391903128287   T   T   T
 34.5394961084015151 20.3266468943233143 17.8743456443161008   T   T   T
 35.6565319039100359 15.7141434517849934 19.5703585523226451   T   T   T
 34.6808265907050384 20.8423366814348405 19.8732180001809553   T   T   T
 38.1976945154357992 19.4845245622009600 19.0857834357493417   T   T   T
 32.1396639791792751 17.0719555710188757 20.3577931167542516   T   T   T
 34.2061176520326242 17.1080180555958563 20.0549336688959414   T   T   T
 37.7229855767633779 18.5702772609246480 20.9029401228992171   T   T   T
 33.1397993482859405 20.9832523519809975 10.4845751165732981   F   F   F
 39.1978298845424575 26.1114455816308428 10.7874345644316101   F   F   F
 35.6809619598117109 24.7536334623969623 10.0000000000000000   F   F   F
 36.6566672730166943 22.3410644712148780 11.2720096810049082   F   F   F
 38.7231209458700434 22.3771269557918551 10.9691502331465962   F   F   F
 35.2062530211392897 23.8393861611206503 11.8171566871498701   F   F   F
 40.1735351977474551 26.2056066567266868 13.5131695951564126   F   F   F
 35.3475835034428201 24.3550759482321766 13.8160290430147263   F   F   F
 38.8644514281735738 22.9972638289982960 13.0285944785831145   F   F   F
 36.6566672730166943 27.5634187759605673 14.3006041595880227   F   F   F
 38.7231209458700434 27.5994812605375479 13.9977447117297107   F   F   F
 38.3897424895011525 22.0830165277219805 14.8457511657329846   F   F   F
 36.3232888166478034 24.4492370233280205 16.5417640737395288   T   T   T
 38.5310729718046829 22.5987063148335103 16.8446235215978426   T   T   T
 35.0142050470739221 21.2408941955996298 16.0571889571662290   T   T   T
 39.8401567413785571 25.8070491425619011 17.3291986381711354   T   T   T
 41.9066104142319062 25.8431116271388817 17.0263391903128287   T   T   T
 38.3897424895011525 27.3053708324676734 17.8743456443161008   T   T   T
 39.5067782850096734 22.6928673899293543 19.5703585523226451   T   T   T
 38.5310729718046758 27.8210606195791996 19.8732180001809553   T   T   T
 42.0479408965354367 26.4632485003453191 19.0857834357493417   T   T   T
 35.9899103602789125 24.0506795091632348 20.3577931167542516   T   T   T
 38.0563640331322617 24.0867419937402154 20.0549336688959414   T   T   T
 41.5732319578630154 25.5490011990690071 20.9029401228992171   T   T   T
