O  Ti C  Ti C  Ti O  Ti C  Ti C  Ti O  Ti C  Ti C  Ti O  Ti C  Ti C  Ti O  Ti C  Ti C  Ti O  Ti C  Ti C  Ti O  Ti C  Ti C  Ti O  Ti C  Ti C  Ti O  Ti C  Ti C  Ti O  Ti C  Ti C  Ti O  Ti C  Ti C  Ti O  Ti C  Ti C  Ti O  Ti C  Ti C  Ti O  Ti C  Ti C  Ti O  Ti C  Ti C  Ti O  Ti C  Ti C  Ti O 
 1.0000000000000000
    10.6382560600880449    0.0000000000000000    0.0000000000000000
    -5.3191280300440225   40.1177148028149801    0.0000000000000000
     0.0000000000000000    0.0000000000000000   21.0522817911297864
 O   Ti  C   Ti  C   Ti  O   Ti  C   Ti  C   Ti  O   Ti  C   Ti  C   Ti  O   Ti  C   Ti  C   Ti  O   Ti  C   Ti  C   Ti  O   Ti  C   Ti  C   Ti  O   Ti  C   Ti  C   Ti  O   Ti  C   Ti  C   Ti  O   Ti  C   Ti  C   Ti  O   Ti  C   Ti  C   Ti  O   Ti  C   Ti  C   Ti  O   Ti  C   Ti  C   Ti  O   Ti  C   Ti  C   Ti  O   Ti  C   Ti  C   Ti  O   Ti  C   Ti  C   Ti  O   Ti  C   Ti  C   Ti  O  
   1   1   1   1   1   1   2   1   1   1   1   1   2   1   1   1   1   1   2   1   1   1   1   1   2   1   1   1   1   1   2   1   1   1   1   1   2   1   1   1   1   1   2   1   1   1   1   1   2   1   1   1   1   1   2   1   1   1   1   1   2   1   1   1   1   1   2   1   1   1   1   1   2   1   1   1   1   1   2   1   1   1   1   1   2   1   1   1   1   1   2   1   1   1   1   1   1
Selective dynamics
Cartesian
 -0.8865213383406688 13.0793970463936216  8.0000000000000000   F   F   F
  0.8865213383406706 12.0823312813916441  8.0765497241080269   F   F   F
  2.6595640150220117 11.0852655163896632  8.1530994482160537   F   F   F
 -0.8865213383406690 10.0881997513876822  8.2296491723240806   F   F   F
  0.8865213383406707  9.0911339863857012  8.3061988964321074   F   F   F
  2.6595640150220112  8.0940682213837203  8.3827486205401343   F   F   F
 -0.8865213383406696  7.0970024563817429  8.4592983446481611   F   F   F
  1.7730426766813430 13.1969391477614995  9.5309944821605406   F   F   F
  3.5460853533626806 12.1998733827595220  9.6075442062685674   F   F   F
  0.0000000000000006 11.2028076177575375  9.6840939303765943   F   F   F
  1.7730426766813419 10.2057418527555566  9.7606436544846211   F   F   F
  3.5460853533626815  9.2086760877535774  9.8371933785926515   F   F   F
  0.0000000000000007  8.2116103227515946  9.9137431027006784   F   F   F
  1.7730426766813412  7.2145445577496181  9.9902928268087052   F   F   F
 -0.8865213383406682 13.3144812491293720 11.0619889643210847   T   T   T
  0.8865213383406710 12.3174154841273982 11.1385386884291115   T   T   T
  2.6595640150220099 11.3203497191254154 11.2150884125371384   T   T   T
 -0.8865213383406676 10.3232839541234345 11.2916381366451652   T   T   T
  0.8865213383406713  9.3262181891214535 11.3681878607531921   T   T   T
  2.6595640150220103  8.3291524241194708 11.4447375848612189   T   T   T
 -0.8865213383406690  7.3320866591174934 11.5212873089692458   T   T   T
  1.7730426766813414 13.4320233504972499 12.5929834464816253   T   T   T
  3.5460853533626819 12.4349575854952725 12.6695331705896521   T   T   T
  0.0000000000000011 11.4378918204932880 12.7460828946976790   T   T   T
  1.7730426766813421 10.4408260554913088 12.8226326188057058   T   T   T
  3.5460853533626815  9.4437602904893296 12.8991823429137327   T   T   T
  0.0000000000000022  8.4466945254873469 12.9757320670217595   T   T   T
  1.7730426766813405  7.4496287604853695 13.0522817911297864   T   T   T
 -3.5460853533626802 33.1382544478011098  8.0000000000000000   F   F   F
 -1.7730426766813405 32.1411886827991324  8.0765497241080269   F   F   F
  0.0000000000000004 31.1441229177971550  8.1530994482160537   F   F   F
 -3.5460853533626802 30.1470571527951705  8.2296491723240806   F   F   F
 -1.7730426766813405 29.1499913877931931  8.3061988964321074   F   F   F
  0.0000000000000000 28.1529256227912086  8.3827486205401343   F   F   F
 -3.5460853533626810 27.1558598577892312  8.4592983446481611   F   F   F
 -0.8865213383406683 33.2557965491689913  9.5309944821605406   F   F   F
  0.8865213383406694 32.2587307841670139  9.6075442062685674   F   F   F
 -2.6595640150220108 31.2616650191650294  9.6840939303765943   F   F   F
 -0.8865213383406694 30.2645992541630449  9.7606436544846211   F   F   F
  0.8865213383406703 29.2675334891610675  9.8371933785926515   F   F   F
 -2.6595640150220103 28.2704677241590829  9.9137431027006784   F   F   F
 -0.8865213383406700 27.2734019591571091  9.9902928268087052   F   F   F
 -3.5460853533626793 33.3733386505368657 11.0619889643210847   T   T   T
 -1.7730426766813401 32.3762728855348882 11.1385386884291115   T   T   T
 -0.0000000000000013 31.3792071205329037 11.2150884125371384   T   T   T
 -3.5460853533626788 30.3821413555309263 11.2916381366451652   T   T   T
 -1.7730426766813401 29.3850755905289418 11.3681878607531921   T   T   T
 -0.0000000000000009 28.3880098255269608 11.4447375848612189   T   T   T
 -3.5460853533626802 27.3909440605249834 11.5212873089692458   T   T   T
 -0.8865213383406698 33.4908807519047400 12.5929834464816253   T   T   T
  0.8865213383406707 32.4938149869027626 12.6695331705896521   T   T   T
 -2.6595640150220099 31.4967492219007781 12.7460828946976790   T   T   T
 -0.8865213383406692 30.4996834568988007 12.8226326188057058   T   T   T
  0.8865213383406703 29.5026176918968197 12.8991823429137327   T   T   T
 -2.6595640150220090 28.5055519268948387 12.9757320670217595   T   T   T
 -0.8865213383406707 27.5084861618928613 13.0522817911297864   T   T   T
  4.4326066917033540 13.0793970463936216  8.0000000000000000   F   F   F
  6.2056493683846927 12.0823312813916441  8.0765497241080269   F   F   F
  7.9786920450660341 11.0852655163896632  8.1530994482160537   F   F   F
  4.4326066917033531 10.0881997513876822  8.2296491723240806   F   F   F
  6.2056493683846927  9.0911339863857012  8.3061988964321074   F   F   F
  7.9786920450660332  8.0940682213837203  8.3827486205401343   F   F   F
  4.4326066917033531  7.0970024563817429  8.4592983446481611   F   F   F
  7.0921707067253656 13.1969391477614995  9.5309944821605406   F   F   F
  8.8652133834067026 12.1998733827595220  9.6075442062685674   F   F   F
  5.3191280300440233 11.2028076177575375  9.6840939303765943   F   F   F
  7.0921707067253639 10.2057418527555566  9.7606436544846211   F   F   F
  8.8652133834067044  9.2086760877535774  9.8371933785926515   F   F   F
  5.3191280300440233  8.2116103227515946  9.9137431027006784   F   F   F
  7.0921707067253639  7.2145445577496181  9.9902928268087052   F   F   F
  4.4326066917033540 13.3144812491293720 11.0619889643210847   T   T   T
  6.2056493683846936 12.3174154841273982 11.1385386884291115   T   T   T
  7.9786920450660324 11.3203497191254154 11.2150884125371384   T   T   T
  4.4326066917033549 10.3232839541234345 11.2916381366451652   T   T   T
  6.2056493683846936  9.3262181891214535 11.3681878607531921   T   T   T
  7.9786920450660332  8.3291524241194708 11.4447375848612189   T   T   T
  4.4326066917033531  7.3320866591174934 11.5212873089692458   T   T   T
  7.0921707067253639 13.4320233504972499 12.5929834464816253   T   T   T
  8.8652133834067044 12.4349575854952725 12.6695331705896521   T   T   T
  5.3191280300440233 11.4378918204932880 12.7460828946976790   T   T   T
  7.0921707067253648 10.4408260554913088 12.8226326188057058   T   T   T
  8.8652133834067044  9.4437602904893296 12.8991823429137327   T   T   T
  5.3191280300440242  8.4466945254873469 12.9757320670217595   T   T   T
  7.0921707067253630  7.4496287604853695 13.0522817911297864   T   T   T
  1.7730426766813423 33.1382544478011098  8.0000000000000000   F   F   F
  3.5460853533626819 32.1411886827991324  8.0765497241080269   F   F   F
  5.3191280300440233 31.1441229177971550  8.1530994482160537   F   F   F
  1.7730426766813423 30.1470571527951705  8.2296491723240806   F   F   F
  3.5460853533626819 29.1499913877931931  8.3061988964321074   F   F   F
  5.3191280300440225 28.1529256227912086  8.3827486205401343   F   F   F
  1.7730426766813416 27.1558598577892312  8.4592983446481611   F   F   F
  4.4326066917033540 33.2557965491689913  9.5309944821605406   F   F   F
  6.2056493683846918 32.2587307841670139  9.6075442062685674   F   F   F
  2.6595640150220117 31.2616650191650294  9.6840939303765943   F   F   F
  4.4326066917033531 30.2645992541630449  9.7606436544846211   F   F   F
  6.2056493683846927 29.2675334891610675  9.8371933785926515   F   F   F
  2.6595640150220121 28.2704677241590829  9.9137431027006784   F   F   F
  4.4326066917033522 27.2734019591571091  9.9902928268087052   F   F   F
  1.7730426766813432 33.3733386505368657 11.0619889643210847   T   T   T
  3.5460853533626824 32.3762728855348882 11.1385386884291115   T   T   T
  5.3191280300440216 31.3792071205329037 11.2150884125371384   T   T   T
  1.7730426766813436 30.3821413555309263 11.2916381366451652   T   T   T
  3.5460853533626824 29.3850755905289418 11.3681878607531921   T   T   T
  5.3191280300440216 28.3880098255269608 11.4447375848612189   T   T   T
  1.7730426766813423 27.3909440605249834 11.5212873089692458   T   T   T
  4.4326066917033522 33.4908807519047400 12.5929834464816253   T   T   T
  6.2056493683846927 32.4938149869027626 12.6695331705896521   T   T   T
  2.6595640150220126 31.4967492219007781 12.7460828946976790   T   T   T
  4.4326066917033531 30.4996834568988007 12.8226326188057058   T   T   T
  6.2056493683846927 29.5026176918968197 12.8991823429137327   T   T   T
  2.6595640150220135 28.5055519268948387 12.9757320670217595   T   T   T
  4.4326066917033522 27.5084861618928613 13.0522817911297864   T   T   T
