Ni Mo N  Mo N  Mo N  Mo N  Mo N  Mo N  Mo N  Mo N  Ag
 1.0000000000000000
     7.4670476093299420    0.0000000000000000    0.0000000000000000
     3.7335238046649710    6.4666529209475900    0.0000000000000000
     0.0000000000000000    0.0000000000000000   27.8994845223857126
 Ni  Mo  N   Mo  N   Mo  N   Mo  N   Mo  N   Mo  N   Mo  N   Mo  N   Ag 
  36   2   1   2   1   2   1   2   1   2   1   2   1   2   1   2   1   2
Selective dynamics
Cartesian
  0.0000000000000000  0.0000000000000000  8.0000000000000000   F   F   F
  2.4890158697766473  0.0000000000000000  8.0000000000000000   F   F   F
  4.9780317395532947  0.0000000000000000  8.0000000000000000   F   F   F
  1.2445079348883237  2.1555509736491967  8.0000000000000000   F   F   F
  3.7335238046649710  2.1555509736491967  8.0000000000000000   F   F   F
  6.2225396744416184  2.1555509736491967  8.0000000000000000   F   F   F
  2.4890158697766473  4.3111019472983934  8.0000000000000000   F   F   F
  4.9780317395532947  4.3111019472983934  8.0000000000000000   F   F   F
  7.4670476093299420  4.3111019472983934  8.0000000000000000   F   F   F
  1.2445079348883237  0.7185169912163989 10.0322729475474830   F   F   F
  3.7335238046649706  0.7185169912163989 10.0322729475474830   F   F   F
  6.2225396744416193  0.7185169912163989 10.0322729475474830   F   F   F
  2.4890158697766473  2.8740679648655956 10.0322729475474830   F   F   F
  4.9780317395532947  2.8740679648655956 10.0322729475474830   F   F   F
  7.4670476093299429  2.8740679648655956 10.0322729475474830   F   F   F
  3.7335238046649710  5.0296189385147922 10.0322729475474830   F   F   F
  6.2225396744416184  5.0296189385147922 10.0322729475474830   F   F   F
  8.7115555442182657  5.0296189385147922 10.0322729475474830   F   F   F
  0.0000000000000000  1.4370339824327978 12.0645458950949660   T   T   T
  2.4890158697766473  1.4370339824327978 12.0645458950949660   T   T   T
  4.9780317395532947  1.4370339824327978 12.0645458950949660   T   T   T
  1.2445079348883237  3.5925849560819940 12.0645458950949660   T   T   T
  3.7335238046649710  3.5925849560819940 12.0645458950949660   T   T   T
  6.2225396744416184  3.5925849560819940 12.0645458950949660   T   T   T
  2.4890158697766473  5.7481359297311911 12.0645458950949660   T   T   T
  4.9780317395532947  5.7481359297311911 12.0645458950949660   T   T   T
  7.4670476093299420  5.7481359297311911 12.0645458950949660   T   T   T
  0.0000000000000000  0.0000000000000000 14.0968188426424490   T   T   T
  2.4890158697766473  0.0000000000000000 14.0968188426424490   T   T   T
  4.9780317395532947  0.0000000000000000 14.0968188426424490   T   T   T
  1.2445079348883237  2.1555509736491967 14.0968188426424490   T   T   T
  3.7335238046649710  2.1555509736491967 14.0968188426424490   T   T   T
  6.2225396744416184  2.1555509736491967 14.0968188426424490   T   T   T
  2.4890158697766473  4.3111019472983934 14.0968188426424490   T   T   T
  4.9780317395532947  4.3111019472983934 14.0968188426424490   T   T   T
  7.4670476093299420  4.3111019472983934 14.0968188426424490   T   T   T
  0.0000000000000000  0.0000000000000000 16.2968188426424483   T   T   T
  2.9415642097360379  1.6983128883296699 17.4977074025568697   T   T   T
  4.4123463146040569  2.5474693324945052 16.2968188426424483   T   T   T
  5.8831284194720750  3.3966257766593402 18.6985959624712912   T   T   T
  5.8831284194720750  0.0000000000000000 19.8994845223857126   T   T   T
  1.4707821048680181  0.8491564441648349 18.6985959624712912   T   T   T
  2.9415642097360379  5.0949386649890105 16.2968188426424483   T   T   T
  5.8831284194720759  6.7932515533186804 17.4977074025568697   T   T   T
  7.3539105243400948  7.6424079974835157 16.2968188426424483   T   T   T
  8.8246926292081120  8.4915644416483502 18.6985959624712912   T   T   T
  8.8246926292081120  5.0949386649890105 19.8994845223857126   T   T   T
  4.4123463146040560  5.9440951091538459 18.6985959624712912   T   T   T
  5.8831284194720759  0.0000000000000000 16.2968188426424483   T   T   T
  8.8246926292081138  1.6983128883296699 17.4977074025568697   T   T   T
 10.2954747340761337  2.5474693324945052 16.2968188426424483   T   T   T
 11.7662568389441518  3.3966257766593402 18.6985959624712912   T   T   T
 11.7662568389441518  0.0000000000000000 19.8994845223857126   T   T   T
  7.3539105243400940  0.8491564441648349 18.6985959624712912   T   T   T
  8.8246926292081138  5.0949386649890105 16.2968188426424483   T   T   T
 11.7662568389441518  6.7932515533186804 17.4977074025568697   T   T   T
 13.2370389438121698  7.6424079974835157 16.2968188426424483   T   T   T
 14.7078210486801879  8.4915644416483502 18.6985959624712912   T   T   T
 14.7078210486801879  5.0949386649890105 19.8994845223857126   T   T   T
 10.2954747340761319  5.9440951091538459 18.6985959624712912   T   T   T
  4.3644589634173405  3.2017552593445879 21.6994845223857133   T   T   T
  6.7644589634173409  3.2017552593445879 21.6994845223857133   T   T   T
