Mo N  Mo N  Mo N  Mo N 
 1.0000000000000000
     8.3200000000000003    0.0000000000000000    0.0000000000000000
     0.0000000000000000    8.3200000000000003    0.0000000000000000
     0.0000000000000000    0.0000000000000000   18.0799999999999983
 Mo  N   Mo  N   Mo  N   Mo  N  
   2   1   2   1   2   1   2   1
Selective dynamics
Cartesian
  0.0000000000000000  0.0000000000000000  7.9999999999999982   F   F   F
  2.0800000000000001  2.0800000000000001 10.0799999999999983   T   T   T
  2.0800000000000001  2.0800000000000001  7.9999999999999982   F   F   F
  0.0000000000000000  4.1600000000000001  7.9999999999999982   F   F   F
  2.0800000000000001  6.2400000000000002 10.0799999999999983   T   T   T
  2.0800000000000001  6.2400000000000002  7.9999999999999982   F   F   F
  4.1600000000000001  0.0000000000000000  7.9999999999999982   F   F   F
  6.2400000000000002  2.0800000000000001 10.0799999999999983   T   T   T
  6.2400000000000002  2.0800000000000001  7.9999999999999982   F   F   F
  4.1600000000000001  4.1600000000000001  7.9999999999999982   F   F   F
  6.2400000000000002  6.2400000000000002 10.0799999999999983   T   T   T
  6.2400000000000002  6.2400000000000002  7.9999999999999982   F   F   F
