Ni O  Ti C  Ti C  Ti O  Ti C  Ti C  Ti O  Ti C  Ti C  Ti O  Ti C  Ti C  Ti O  Ti C  Ti C  Ti O  Ti C  Ti C  Ti O  Ti C  Ti C  Ti O  Ti C  Ti C  Ti O  Ti C  Ti C  Ti O  Ir
 1.0000000000000000
     7.4670476093299420    0.0000000000000000    0.0000000000000000
     0.0000000000000000    7.4670476093299420    0.0000000000000000
     0.0000000000000000    0.0000000000000000   29.4800000000000004
 Ni  O   Ti  C   Ti  C   Ti  O   Ti  C   Ti  C   Ti  O   Ti  C   Ti  C   Ti  O   Ti  C   Ti  C   Ti  O   Ti  C   Ti  C   Ti  O   Ti  C   Ti  C   Ti  O   Ti  C   Ti  C   Ti  O   Ti  C   Ti  C   Ti  O   Ti  C   Ti  C   Ti  O   Ir 
  36   1   1   1   1   1   1   2   1   1   1   1   1   2   1   1   1   1   1   2   1   1   1   1   1   2   1   1   1   1   1   2   1   1   1   1   1   2   1   1   1   1   1   2   1   1   1   1   1   2   1   1   1   1   1   1   4
Selective dynamics
Cartesian
  1.2445079348883237  1.2445079348883237  8.0000000000000000   F   F   F
  3.7335238046649710  1.2445079348883237  8.0000000000000000   F   F   F
  6.2225396744416184  1.2445079348883237  8.0000000000000000   F   F   F
  1.2445079348883237  3.7335238046649710  8.0000000000000000   F   F   F
  3.7335238046649710  3.7335238046649710  8.0000000000000000   F   F   F
  6.2225396744416184  3.7335238046649710  8.0000000000000000   F   F   F
  1.2445079348883237  6.2225396744416184  8.0000000000000000   F   F   F
  3.7335238046649710  6.2225396744416184  8.0000000000000000   F   F   F
  6.2225396744416184  6.2225396744416184  8.0000000000000000   F   F   F
  0.0000000000000000  0.0000000000000000  9.7599999999999998   F   F   F
  2.4890158697766473  0.0000000000000000  9.7599999999999998   F   F   F
  4.9780317395532947  0.0000000000000000  9.7599999999999998   F   F   F
  0.0000000000000000  2.4890158697766473  9.7599999999999998   F   F   F
  2.4890158697766473  2.4890158697766473  9.7599999999999998   F   F   F
  4.9780317395532947  2.4890158697766473  9.7599999999999998   F   F   F
  0.0000000000000000  4.9780317395532947  9.7599999999999998   F   F   F
  2.4890158697766473  4.9780317395532947  9.7599999999999998   F   F   F
  4.9780317395532947  4.9780317395532947  9.7599999999999998   F   F   F
  1.2445079348883237  1.2445079348883237 11.5199999999999996   T   T   T
  3.7335238046649710  1.2445079348883237 11.5199999999999996   T   T   T
  6.2225396744416184  1.2445079348883237 11.5199999999999996   T   T   T
  1.2445079348883237  3.7335238046649710 11.5199999999999996   T   T   T
  3.7335238046649710  3.7335238046649710 11.5199999999999996   T   T   T
  6.2225396744416184  3.7335238046649710 11.5199999999999996   T   T   T
  1.2445079348883237  6.2225396744416184 11.5199999999999996   T   T   T
  3.7335238046649710  6.2225396744416184 11.5199999999999996   T   T   T
  6.2225396744416184  6.2225396744416184 11.5199999999999996   T   T   T
  0.0000000000000000  0.0000000000000000 13.2800000000000011   T   T   T
  2.4890158697766473  0.0000000000000000 13.2800000000000011   T   T   T
  4.9780317395532947  0.0000000000000000 13.2800000000000011   T   T   T
  0.0000000000000000  2.4890158697766473 13.2800000000000011   T   T   T
  2.4890158697766473  2.4890158697766473 13.2800000000000011   T   T   T
  4.9780317395532947  2.4890158697766473 13.2800000000000011   T   T   T
  0.0000000000000000  4.9780317395532947 13.2800000000000011   T   T   T
  2.4890158697766473  4.9780317395532947 13.2800000000000011   T   T   T
  4.9780317395532947  4.9780317395532947 13.2800000000000011   T   T   T
  0.0000000000000001  1.7730426766813407 15.4800000000000004   T   T   T
  1.5355000000000001  0.8865213383406704 16.4800000000000004   T   T   T
  0.0000000000000000  0.0000000000000000 17.4800000000000004   T   T   T
  0.0000000000000001  1.7730426766813407 18.4800000000000004   T   T   T
  1.5355000000000001  0.8865213383406704 19.4800000000000004   T   T   T
  0.0000000000000000  0.0000000000000000 20.4800000000000004   T   T   T
  0.0000000000000001  1.7730426766813407 21.4800000000000004   T   T   T
 -1.5355000000000001  4.4326066917033522 15.4800000000000004   T   T   T
  0.0000000000000000  3.5460853533626815 16.4800000000000004   T   T   T
 -1.5355000000000001  2.6595640150220112 17.4800000000000004   T   T   T
 -1.5355000000000001  4.4326066917033522 18.4800000000000004   T   T   T
  0.0000000000000000  3.5460853533626815 19.4800000000000004   T   T   T
 -1.5355000000000001  2.6595640150220112 20.4800000000000004   T   T   T
 -1.5355000000000001  4.4326066917033522 21.4800000000000004   T   T   T
 -3.0710000000000002  7.0921707067253630 15.4800000000000004   T   T   T
 -1.5355000000000001  6.2056493683846927 16.4800000000000004   T   T   T
 -3.0710000000000002  5.3191280300440225 17.4800000000000004   T   T   T
 -3.0710000000000002  7.0921707067253630 18.4800000000000004   T   T   T
 -1.5355000000000001  6.2056493683846927 19.4800000000000004   T   T   T
 -3.0710000000000002  5.3191280300440225 20.4800000000000004   T   T   T
 -3.0710000000000002  7.0921707067253630 21.4800000000000004   T   T   T
  3.0710000000000002  1.7730426766813407 15.4800000000000004   T   T   T
  4.6065000000000005  0.8865213383406704 16.4800000000000004   T   T   T
  3.0710000000000002  0.0000000000000000 17.4800000000000004   T   T   T
  3.0710000000000002  1.7730426766813407 18.4800000000000004   T   T   T
  4.6065000000000005  0.8865213383406704 19.4800000000000004   T   T   T
  3.0710000000000002  0.0000000000000000 20.4800000000000004   T   T   T
  3.0710000000000002  1.7730426766813407 21.4800000000000004   T   T   T
  1.5355000000000001  4.4326066917033522 15.4800000000000004   T   T   T
  3.0710000000000002  3.5460853533626815 16.4800000000000004   T   T   T
  1.5355000000000001  2.6595640150220112 17.4800000000000004   T   T   T
  1.5355000000000001  4.4326066917033522 18.4800000000000004   T   T   T
  3.0710000000000002  3.5460853533626815 19.4800000000000004   T   T   T
  1.5355000000000001  2.6595640150220112 20.4800000000000004   T   T   T
  1.5355000000000001  4.4326066917033522 21.4800000000000004   T   T   T
  0.0000000000000001  7.0921707067253630 15.4800000000000004   T   T   T
  1.5355000000000001  6.2056493683846927 16.4800000000000004   T   T   T
  0.0000000000000000  5.3191280300440225 17.4800000000000004   T   T   T
  0.0000000000000001  7.0921707067253630 18.4800000000000004   T   T   T
  1.5355000000000001  6.2056493683846927 19.4800000000000004   T   T   T
  0.0000000000000000  5.3191280300440225 20.4800000000000004   T   T   T
  0.0000000000000001  7.0921707067253630 21.4800000000000004   T   T   T
  6.1420000000000003  1.7730426766813407 15.4800000000000004   T   T   T
  7.6775000000000002  0.8865213383406704 16.4800000000000004   T   T   T
  6.1420000000000003  0.0000000000000000 17.4800000000000004   T   T   T
  6.1420000000000003  1.7730426766813407 18.4800000000000004   T   T   T
  7.6775000000000002  0.8865213383406704 19.4800000000000004   T   T   T
  6.1420000000000003  0.0000000000000000 20.4800000000000004   T   T   T
  6.1420000000000003  1.7730426766813407 21.4800000000000004   T   T   T
  4.6065000000000005  4.4326066917033522 15.4800000000000004   T   T   T
  6.1420000000000003  3.5460853533626815 16.4800000000000004   T   T   T
  4.6065000000000005  2.6595640150220112 17.4800000000000004   T   T   T
  4.6065000000000005  4.4326066917033522 18.4800000000000004   T   T   T
  6.1420000000000003  3.5460853533626815 19.4800000000000004   T   T   T
  4.6065000000000005  2.6595640150220112 20.4800000000000004   T   T   T
  4.6065000000000005  4.4326066917033522 21.4800000000000004   T   T   T
  3.0710000000000002  7.0921707067253630 15.4800000000000004   T   T   T
  4.6065000000000005  6.2056493683846927 16.4800000000000004   T   T   T
  3.0710000000000002  5.3191280300440225 17.4800000000000004   T   T   T
  3.0710000000000002  7.0921707067253630 18.4800000000000004   T   T   T
  4.6065000000000005  6.2056493683846927 19.4800000000000004   T   T   T
  3.0710000000000002  5.3191280300440225 20.4800000000000004   T   T   T
  3.0710000000000002  7.0921707067253630 21.4800000000000004   T   T   T
  1.1876890317166586  2.2685634691602425 23.2800000000000011   T   T   T
  1.1876890317166586  4.6685634691602420 23.2800000000000011   T   T   T
  3.5876890317166588  2.2685634691602425 23.2800000000000011   T   T   T
  3.5876890317166588  4.6685634691602420 23.2800000000000011   T   T   T
