Mo Se Mo Se Mo Se Mo Se Mo Se Mo Se Mo Se Mo Se Mo Se Mo Se Mo Se Mo Se Mo Se Mo Se Mo Se Mo Se
 1.0000000000000000
    11.3934302121880755    0.0000000000000000    0.0000000000000000
     0.0000000000000000   25.9899999999999984    0.0000000000000000
     0.0000000000000000    0.0000000000000000   20.9335000000000022
 Mo  Se  Mo  Se  Mo  Se  Mo  Se  Mo  Se  Mo  Se  Mo  Se  Mo  Se  Mo  Se  Mo  Se  Mo  Se  Mo  Se  Mo  Se  Mo  Se  Mo  Se  Mo  Se 
   1   2   1   2   1   2   1   2   1   2   1   2   1   2   1   1   1   2   1   2   1   2   1   1   1   2   1   2   1   2   1   2
Selective dynamics
Cartesian
  0.0000000000000000  6.4975000000000014  8.0000000000000000   F   F   F
  1.8989050353646797  4.9381000000000004  8.0000000000000000   F   F   F
  3.7978100707293589  8.0569000000000006  8.0000000000000000   F   F   F
  2.8483575530470189  6.4975000000000014  9.6445000000000007   F   F   F
  4.7472625884116981  4.9381000000000004  9.6445000000000007   F   F   F
  0.9494525176823401  8.0569000000000006  9.6445000000000007   F   F   F
  0.0000000000000000  6.4975000000000014 11.2890000000000015   T   T   T
  1.8989050353646801  4.9381000000000004 11.2890000000000015   T   T   T
  3.7978100707293576  8.0569000000000006 11.2890000000000015   T   T   T
  2.8483575530470189  6.4975000000000014 12.9335000000000022   T   T   T
  4.7472625884116981  4.9381000000000004 12.9335000000000022   T   T   T
  0.9494525176823387  8.0569000000000006 12.9335000000000022   T   T   T
  0.0000000000000000 19.4924999999999997  8.0000000000000000   F   F   F
  1.8989050353646797 17.9330999999999996  8.0000000000000000   F   F   F
  3.7978100707293589 21.0518999999999998  8.0000000000000000   F   F   F
  2.8483575530470189 19.4924999999999997  9.6445000000000007   F   F   F
  4.7472625884116981 17.9330999999999996  9.6445000000000007   F   F   F
  0.9494525176823401 21.0518999999999998  9.6445000000000007   F   F   F
  0.0000000000000000 19.4924999999999997 11.2890000000000015   T   T   T
  1.8989050353646801 17.9330999999999996 11.2890000000000015   T   T   T
  3.7978100707293576 21.0518999999999998 11.2890000000000015   T   T   T
  2.8483575530470189 19.4924999999999997 12.9335000000000022   T   T   T
  0.9494525176823387 21.0518999999999998 12.9335000000000022   T   T   T
  5.6967151060940378  6.4975000000000014  8.0000000000000000   F   F   F
  7.5956201414587170  4.9381000000000004  8.0000000000000000   F   F   F
  9.4945251768233963  8.0569000000000006  8.0000000000000000   F   F   F
  8.5450726591410557  6.4975000000000014  9.6445000000000007   F   F   F
 10.4439776945057368  4.9381000000000004  9.6445000000000007   F   F   F
  6.6461676237763783  8.0569000000000006  9.6445000000000007   F   F   F
  5.6967151060940378  6.4975000000000014 11.2890000000000015   T   T   T
  7.5956201414587179  4.9381000000000004 11.2890000000000015   T   T   T
  9.4945251768233945  8.0569000000000006 11.2890000000000015   T   T   T
  8.5450726591410557  6.4975000000000014 12.9335000000000022   T   T   T
 10.4439776945057368  4.9381000000000004 12.9335000000000022   T   T   T
  5.6967151060940378 19.4924999999999997  8.0000000000000000   F   F   F
  7.5956201414587170 17.9330999999999996  8.0000000000000000   F   F   F
  9.4945251768233963 21.0518999999999998  8.0000000000000000   F   F   F
  8.5450726591410557 19.4924999999999997  9.6445000000000007   F   F   F
 10.4439776945057368 17.9330999999999996  9.6445000000000007   F   F   F
  6.6461676237763783 21.0518999999999998  9.6445000000000007   F   F   F
  5.6967151060940378 19.4924999999999997 11.2890000000000015   T   T   T
  7.5956201414587179 17.9330999999999996 11.2890000000000015   T   T   T
  9.4945251768233945 21.0518999999999998 11.2890000000000015   T   T   T
  8.5450726591410557 19.4924999999999997 12.9335000000000022   T   T   T
 10.4439776945057368 17.9330999999999996 12.9335000000000022   T   T   T
  6.6461676237763765 21.0518999999999998 12.9335000000000022   T   T   T
