Mo S  Mo S  Mo S  Mo S  Mo S  Mo S  Mo S  Mo S  Mo S  Mo S  Mo S  Mo S  Mo S  Mo S  Mo S  Mo S 
 1.0000000000000000
    10.9465611038353039    0.0000000000000000    0.0000000000000000
    -5.4732805519176528   24.7922104702263262    0.0000000000000000
     0.0000000000000000    0.0000000000000000   21.0774467307452973
 Mo  S   Mo  S   Mo  S   Mo  S   Mo  S   Mo  S   Mo  S   Mo  S   Mo  S   Mo  S   Mo  S   Mo  S   Mo  S   Mo  S   Mo  S   Mo  S  
   1   2   1   2   1   2   1   2   1   2   1   2   1   2   1   2   1   2   1   2   1   2   1   1   1   2   1   2   1   2   1   2
Selective dynamics
Cartesian
  2.7366402759588255  6.2987455349145565  8.1880535826201957   F   F   F
 -0.9122134253196089  4.8353792068668930  8.3761071652403931   F   F   F
  0.9122134253196078  7.7621118629622208  8.0000000000000000   F   F   F
 -0.0000000000000007  6.5001313696305045  9.7551667711218322   F   F   F
  1.8244268506392181  5.0367650415828411  9.9432203537420278   F   F   F
  3.6488537012784334  7.9634976976781688  9.5671131885016347   F   F   F
  2.7366402759588273  6.7015172043464526 11.3222799596234669   T   T   T
 -0.9122134253196110  5.2381508762987901 11.5103335422436626   T   T   T
  0.9122134253196067  8.1648835323941178 11.1342263770032712   T   T   T
 -0.0000000000000005  6.9029030390624015 12.8893931481251016   T   T   T
  1.8244268506392169  5.4395367110147381 13.0774467307452973   T   T   T
 -1.8244268506392185  8.3662693671100659 12.7013395655049059   T   T   T
 -0.0000000000000009 18.6948507700277204  8.1880535826201957   F   F   F
 -3.6488537012784352 17.2314844419800579  8.3761071652403931   F   F   F
 -1.8244268506392185 20.1582170980753830  8.0000000000000000   F   F   F
 -2.7366402759588273 18.8962366047436667  9.7551667711218322   F   F   F
 -0.9122134253196084 17.4328702766960042  9.9432203537420278   F   F   F
  0.9122134253196070 20.3596029327913328  9.5671131885016347   F   F   F
  0.0000000000000009 19.0976224394596166 11.3222799596234669   T   T   T
 -3.6488537012784374 17.6342561114119540 11.5103335422436626   T   T   T
 -1.8244268506392198 20.5609887675072827 11.1342263770032712   T   T   T
 -2.7366402759588269 19.2990082741755629 12.8893931481251016   T   T   T
 -0.9122134253196095 17.8356419461279003 13.0774467307452973   T   T   T
 -4.5610671265980454 20.7623746022232289 12.7013395655049059   T   T   T
  8.2099208278764770  6.2987455349145565  8.1880535826201957   F   F   F
  4.5610671265980427  4.8353792068668930  8.3761071652403931   F   F   F
  6.3854939772372594  7.7621118629622208  8.0000000000000000   F   F   F
  5.4732805519176511  6.5001313696305045  9.7551667711218322   F   F   F
  7.2977074025568704  5.0367650415828411  9.9432203537420278   F   F   F
  9.1221342531960854  7.9634976976781688  9.5671131885016347   F   F   F
  8.2099208278764788  6.7015172043464526 11.3222799596234669   T   T   T
  4.5610671265980409  5.2381508762987901 11.5103335422436626   T   T   T
  6.3854939772372585  8.1648835323941178 11.1342263770032712   T   T   T
  5.4732805519176511  6.9029030390624015 12.8893931481251016   T   T   T
  7.2977074025568687  5.4395367110147381 13.0774467307452973   T   T   T
  5.4732805519176511 18.6948507700277204  8.1880535826201957   F   F   F
  1.8244268506392167 17.2314844419800579  8.3761071652403931   F   F   F
  3.6488537012784334 20.1582170980753830  8.0000000000000000   F   F   F
  2.7366402759588246 18.8962366047436667  9.7551667711218322   F   F   F
  4.5610671265980436 17.4328702766960042  9.9432203537420278   F   F   F
  6.3854939772372585 20.3596029327913328  9.5671131885016347   F   F   F
  5.4732805519176528 19.0976224394596166 11.3222799596234669   T   T   T
  1.8244268506392145 17.6342561114119540 11.5103335422436626   T   T   T
  3.6488537012784321 20.5609887675072827 11.1342263770032712   T   T   T
  2.7366402759588251 19.2990082741755629 12.8893931481251016   T   T   T
  4.5610671265980427 17.8356419461279003 13.0774467307452973   T   T   T
  0.9122134253196070 20.7623746022232289 12.7013395655049059   T   T   T
