Mo N  Mo N  Mo N  Mo N  Mo N  Mo N  Mo N  Mo N  Mo N  Mo N  Mo N  Mo Ru N  Mo N  Mo N  Mo N  Mo N 
 1.0000000000000000
    11.7662568389441518    0.0000000000000000    0.0000000000000000
     0.0000000000000000    8.3200000000000003    0.0000000000000000
     0.0000000000000000    0.0000000000000000   24.8246926292081156
 Mo  N   Mo  N   Mo  N   Mo  N   Mo  N   Mo  N   Mo  N   Mo  N   Mo  N   Mo  N   Mo  N   Mo  Ru  N   Mo  N   Mo  N   Mo  N   Mo  N  
   2   1   2   1   2   1   2   1   2   1   2   1   2   1   2   1   2   1   2   1   2   1   1   1   1   2   1   2   1   2   1   2   1
Selective dynamics
Cartesian
  0.0000000000000000  0.0000000000000000  8.0000000000000000   F   F   F
  2.9415642097360379  2.0800000000000001  8.0000000000000000   F   F   F
  2.9415642097360379  0.0000000000000000  8.0000000000000000   F   F   F
  2.9415642097360379  0.0000000000000000 10.9415642097360379   F   F   F
  0.0000000000000000  2.0800000000000001 10.9415642097360362   F   F   F
  0.0000000000000000  0.0000000000000000 10.9415642097360362   F   F   F
  0.0000000000000000  0.0000000000000000 13.8831284194720759   T   T   T
  2.9415642097360379  2.0800000000000001 13.8831284194720759   T   T   T
  2.9415642097360379  0.0000000000000000 13.8831284194720759   T   T   T
  2.9415642097360379  0.0000000000000000 16.8246926292081120   T   T   T
  0.0000000000000026  2.0800000000000001 16.8246926292081156   T   T   T
  0.0000000000000026  0.0000000000000000 16.8246926292081156   T   T   T
  0.0000000000000000  4.1600000000000001  8.0000000000000000   F   F   F
  2.9415642097360379  6.2400000000000002  8.0000000000000000   F   F   F
  2.9415642097360379  4.1600000000000001  8.0000000000000000   F   F   F
  2.9415642097360379  4.1600000000000001 10.9415642097360379   F   F   F
  0.0000000000000000  6.2400000000000002 10.9415642097360362   F   F   F
  0.0000000000000000  4.1600000000000001 10.9415642097360362   F   F   F
  0.0000000000000000  4.1600000000000001 13.8831284194720759   T   T   T
  2.9415642097360379  6.2400000000000002 13.8831284194720759   T   T   T
  2.9415642097360379  4.1600000000000001 13.8831284194720759   T   T   T
  2.9415642097360379  4.1600000000000001 16.8246926292081120   T   T   T
  0.0000000000000026  6.2400000000000002 16.8246926292081156   T   T   T
  0.0000000000000026  4.1600000000000001 16.8246926292081156   T   T   T
  5.8831284194720759  0.0000000000000000  8.0000000000000000   F   F   F
  8.8246926292081138  2.0800000000000001  8.0000000000000000   F   F   F
  8.8246926292081138  0.0000000000000000  8.0000000000000000   F   F   F
  8.8246926292081138  0.0000000000000000 10.9415642097360379   F   F   F
  5.8831284194720759  2.0800000000000001 10.9415642097360362   F   F   F
  5.8831284194720759  0.0000000000000000 10.9415642097360362   F   F   F
  5.8831284194720759  0.0000000000000000 13.8831284194720759   T   T   T
  8.8246926292081138  2.0800000000000001 13.8831284194720759   T   T   T
  8.8246926292081138  0.0000000000000000 13.8831284194720759   T   T   T
  8.8246926292081138  0.0000000000000000 16.8246926292081120   T   T   T
  5.8831284194720785  2.0800000000000001 16.8246926292081156   T   T   T
  5.8831284194720785  0.0000000000000000 16.8246926292081156   T   T   T
  5.8831284194720759  4.1600000000000001  8.0000000000000000   F   F   F
  8.8246926292081138  6.2400000000000002  8.0000000000000000   F   F   F
  8.8246926292081138  4.1600000000000001  8.0000000000000000   F   F   F
  8.8246926292081138  4.1600000000000001 10.9415642097360379   F   F   F
  5.8831284194720759  6.2400000000000002 10.9415642097360362   F   F   F
  5.8831284194720759  4.1600000000000001 10.9415642097360362   F   F   F
  5.8831284194720759  4.1600000000000001 13.8831284194720759   T   T   T
  8.8246926292081138  6.2400000000000002 13.8831284194720759   T   T   T
  8.8246926292081138  4.1600000000000001 13.8831284194720759   T   T   T
  8.8246926292081138  4.1600000000000001 16.8246926292081120   T   T   T
  5.8831284194720785  6.2400000000000002 16.8246926292081156   T   T   T
  5.8831284194720785  4.1600000000000001 16.8246926292081156   T   T   T
