Mo C  Mo C  Mo C  Mo C  Mo C  Mo C  Mo C  Mo C  Mo C  Mo C  Mo C  Mo C  Mo C  Mo C  Mo C  Mo C  Mo C  Mo C  Mo C  Mo C  Mo C  Mo C  Mo C  Mo C  Mo C  Mo C  Mo C  Mo C  Mo C  Mo C  Mo C  Mo C  Mo C  Mo C  Mo C  Mo C  Mo C  Mo C  Mo C  Mo C  Mo C  Mo C  Mo C  Mo C  Mo C  Mo C  Mo C  Mo C  Mo C  Mo C  Mo C  Mo C  Mo C  Mo C  Mo C  Mo C  Mo C  Mo C  Mo C  Mo C  Mo C  Mo C  Mo C  Mo C 
 1.0000000000000000
    30.6821623749044115    0.0000000000000000    0.0000000000000000
     0.0000000000000000   20.8159999999999989    0.0000000000000000
     0.0000000000000000    0.0000000000000000   33.9287306878197654
 Mo  C   Mo  C   Mo  C   Mo  C   Mo  C   Mo  C   Mo  C   Mo  C   Mo  C   Mo  C   Mo  C   Mo  C   Mo  C   Mo  C   Mo  C   Mo  C   Mo  C   Mo  C   Mo  C   Mo  C   Mo  C   Mo  C   Mo  C   Mo  C   Mo  C   Mo  C   Mo  C   Mo  C   Mo  C   Mo  C   Mo  C   Mo  C   Mo  C   Mo  C   Mo  C   Mo  C   Mo  C   Mo  C   Mo  C   Mo  C   Mo  C   Mo  C   Mo  C   Mo  C   Mo  C   Mo  C   Mo  C   Mo  C   Mo  C   Mo  C   Mo  C   Mo  C   Mo  C   Mo  C   Mo  C   Mo  C   Mo  C   Mo  C   Mo  C   Mo  C   Mo  C   Mo  C   Mo  C   Mo  C  
   4   2   4   2   4   2   4   2   4   2   4   2   4   2   4   2   4   2   4   2   4   2   4   2   4   2   4   2   4   2   4   2   4   2   4   2   4   2   4   2   4   2   4   2   4   2   4   2   4   2   4   2   4   2   4   2   4   2   4   2   4   2   4   2   4   2   4   2   4   2   4   2   4   2   4   2   4   2   4   2   4   2   4   2   4   2   4   2   4   2   4   2   4   2   4   2   4   2   4   2   4   2   4   2   4   2   4   2   4   2   4   2   4   2   4   2   4   2   4   2   4   2   4   2   4   2   4   2
Selective dynamics
Cartesian
  0.1596382556141553  4.7876800000000008 10.8938222901274724   F   F   F
  2.7595593845514865  0.4163199999999999 11.8621297710989015   F   F   F
  5.4545073725600277  3.0183200000000001 12.7559520612263704   F   F   F
  5.1352308613317170  2.1856800000000001 10.0000000000000018   F   F   F
  5.9600571304443370  3.9030000000000005 10.8565796947054949   F   F   F
  3.1700822833645863  1.3009999999999999 10.0372425954219793   F   F   F
  3.0788358957797990  4.7876800000000008 14.6180818323252684   F   F   F
  5.6787570247171271  0.4163199999999999 15.5863893132966975   F   F   F
  0.7031644189995669  3.0183200000000001 16.4802116034241664   F   F   F
  0.3838879077712564  2.1856800000000001 13.7242595421977978   F   F   F
  1.2087141768838772  3.9030000000000005 14.5808392369032926   F   F   F
  6.0892799235302277  1.3009999999999999 13.7615021376197770   F   F   F
  5.9980335359454413  4.7876800000000008 18.3423413745230661   T   T   T
  0.9274140711566664  0.4163199999999999 19.3106488554944988   T   T   T
  3.6223620591652090  3.0183200000000001 20.2044711456219659   T   T   T
  3.3030855479368983  2.1856800000000001 17.4485190843955991   T   T   T
  4.1279118170495188  3.9030000000000005 18.3050987791010940   T   T   T
  1.3379369699697672  1.3009999999999999 17.4857616798175712   T   T   T
  1.2466905823849788  4.7876800000000008 22.0666009167208657   T   T   T
  3.8466117113223084  0.4163199999999999 23.0349083976922913   T   T   T
  6.5415596993308514  3.0183200000000001 23.9287306878197654   T   T   T
  6.2222831881025407  2.1856800000000001 21.1727786265933915   T   T   T
  7.0471094572151616  3.9030000000000005 22.0293583212988864   T   T   T
  4.2571346101354095  1.3009999999999999 21.2100212220153708   T   T   T
  0.1596382556141553  9.9916800000000006 10.8938222901274724   F   F   F
  2.7595593845514865  5.6203199999999995 11.8621297710989015   F   F   F
  5.4545073725600277  8.2223199999999999 12.7559520612263704   F   F   F
  5.1352308613317170  7.3896800000000002 10.0000000000000018   F   F   F
  5.9600571304443370  9.1069999999999993 10.8565796947054949   F   F   F
  3.1700822833645863  6.5049999999999999 10.0372425954219793   F   F   F
  3.0788358957797990  9.9916800000000006 14.6180818323252684   F   F   F
  5.6787570247171271  5.6203199999999995 15.5863893132966975   F   F   F
  0.7031644189995669  8.2223199999999999 16.4802116034241664   F   F   F
  0.3838879077712564  7.3896800000000002 13.7242595421977978   F   F   F
  1.2087141768838772  9.1069999999999993 14.5808392369032926   F   F   F
  6.0892799235302277  6.5049999999999999 13.7615021376197770   F   F   F
  5.9980335359454413  9.9916800000000006 18.3423413745230661   T   T   T
  0.9274140711566664  5.6203199999999995 19.3106488554944988   T   T   T
  3.6223620591652090  8.2223199999999999 20.2044711456219659   T   T   T
  3.3030855479368983  7.3896800000000002 17.4485190843955991   T   T   T
  4.1279118170495188  9.1069999999999993 18.3050987791010940   T   T   T
  1.3379369699697672  6.5049999999999999 17.4857616798175712   T   T   T
  1.2466905823849788  9.9916800000000006 22.0666009167208657   T   T   T
  3.8466117113223084  5.6203199999999995 23.0349083976922913   T   T   T
  6.5415596993308514  8.2223199999999999 23.9287306878197654   T   T   T
  6.2222831881025407  7.3896800000000002 21.1727786265933915   T   T   T
  7.0471094572151616  9.1069999999999993 22.0293583212988864   T   T   T
  4.2571346101354095  6.5049999999999999 21.2100212220153708   T   T   T
  0.1596382556141553 15.1956799999999994 10.8938222901274724   F   F   F
  2.7595593845514865 10.8243200000000002 11.8621297710989015   F   F   F
  5.4545073725600277 13.4263200000000005 12.7559520612263704   F   F   F
  5.1352308613317170 12.5936799999999991 10.0000000000000018   F   F   F
  5.9600571304443370 14.3109999999999999 10.8565796947054949   F   F   F
  3.1700822833645863 11.7089999999999996 10.0372425954219793   F   F   F
  3.0788358957797990 15.1956799999999994 14.6180818323252684   F   F   F
  5.6787570247171271 10.8243200000000002 15.5863893132966975   F   F   F
  0.7031644189995669 13.4263200000000005 16.4802116034241664   F   F   F
  0.3838879077712564 12.5936799999999991 13.7242595421977978   F   F   F
  1.2087141768838772 14.3109999999999999 14.5808392369032926   F   F   F
  6.0892799235302277 11.7089999999999996 13.7615021376197770   F   F   F
  5.9980335359454413 15.1956799999999994 18.3423413745230661   T   T   T
  0.9274140711566664 10.8243200000000002 19.3106488554944988   T   T   T
  3.6223620591652090 13.4263200000000005 20.2044711456219659   T   T   T
  3.3030855479368983 12.5936799999999991 17.4485190843955991   T   T   T
  4.1279118170495188 14.3109999999999999 18.3050987791010940   T   T   T
  1.3379369699697672 11.7089999999999996 17.4857616798175712   T   T   T
  1.2466905823849788 15.1956799999999994 22.0666009167208657   T   T   T
  3.8466117113223084 10.8243200000000002 23.0349083976922913   T   T   T
  6.5415596993308514 13.4263200000000005 23.9287306878197654   T   T   T
  6.2222831881025407 12.5936799999999991 21.1727786265933915   T   T   T
  7.0471094572151616 14.3109999999999999 22.0293583212988864   T   T   T
  4.2571346101354095 11.7089999999999996 21.2100212220153708   T   T   T
  0.1596382556141553 20.3996800000000000 10.8938222901274724   F   F   F
  2.7595593845514865 16.0283199999999972 11.8621297710989015   F   F   F
  5.4545073725600277 18.6303199999999975 12.7559520612263704   F   F   F
  5.1352308613317170 17.7976799999999997 10.0000000000000018   F   F   F
  5.9600571304443370 19.5150000000000006 10.8565796947054949   F   F   F
  3.1700822833645863 16.9129999999999967 10.0372425954219793   F   F   F
  3.0788358957797990 20.3996800000000000 14.6180818323252684   F   F   F
  5.6787570247171271 16.0283199999999972 15.5863893132966975   F   F   F
  0.7031644189995669 18.6303199999999975 16.4802116034241664   F   F   F
  0.3838879077712564 17.7976799999999997 13.7242595421977978   F   F   F
  1.2087141768838772 19.5150000000000006 14.5808392369032926   F   F   F
  6.0892799235302277 16.9129999999999967 13.7615021376197770   F   F   F
  5.9980335359454413 20.3996800000000000 18.3423413745230661   T   T   T
  0.9274140711566664 16.0283199999999972 19.3106488554944988   T   T   T
  3.6223620591652090 18.6303199999999975 20.2044711456219659   T   T   T
  3.3030855479368983 17.7976799999999997 17.4485190843955991   T   T   T
  4.1279118170495188 19.5150000000000006 18.3050987791010940   T   T   T
  1.3379369699697672 16.9129999999999967 17.4857616798175712   T   T   T
  1.2466905823849788 20.3996800000000000 22.0666009167208657   T   T   T
  3.8466117113223084 16.0283199999999972 23.0349083976922913   T   T   T
  6.5415596993308514 18.6303199999999975 23.9287306878197654   T   T   T
  6.2222831881025407 17.7976799999999997 21.1727786265933915   T   T   T
  7.0471094572151616 19.5150000000000006 22.0293583212988864   T   T   T
  4.2571346101354095 16.9129999999999967 21.2100212220153708   T   T   T
  7.8301788493402578  4.7876800000000008 10.8938222901274724   F   F   F
 10.4300999782775889  0.4163199999999999 11.8621297710989015   F   F   F
 13.1250479662861306  3.0183200000000001 12.7559520612263704   F   F   F
 12.8057714550578190  2.1856800000000001 10.0000000000000018   F   F   F
 13.6305977241704390  3.9030000000000005 10.8565796947054949   F   F   F
 10.8406228770906896  1.3009999999999999 10.0372425954219793   F   F   F
 10.7493764895059023  4.7876800000000008 14.6180818323252684   F   F   F
 13.3492976184432308  0.4163199999999999 15.5863893132966975   F   F   F
  8.3737050127256705  3.0183200000000001 16.4802116034241664   F   F   F
  8.0544285014973589  2.1856800000000001 13.7242595421977978   F   F   F
  8.8792547706099807  3.9030000000000005 14.5808392369032926   F   F   F
 13.7598205172563297  1.3009999999999999 13.7615021376197770   F   F   F
 13.6685741296715442  4.7876800000000008 18.3423413745230661   T   T   T
  8.5979546648827689  0.4163199999999999 19.3106488554944988   T   T   T
 11.2929026528913123  3.0183200000000001 20.2044711456219659   T   T   T
 10.9736261416630008  2.1856800000000001 17.4485190843955991   T   T   T
 11.7984524107756208  3.9030000000000005 18.3050987791010940   T   T   T
  9.0084775636958696  1.3009999999999999 17.4857616798175712   T   T   T
  8.9172311761110823  4.7876800000000008 22.0666009167208657   T   T   T
 11.5171523050484108  0.4163199999999999 23.0349083976922913   T   T   T
 14.2121002930569542  3.0183200000000001 23.9287306878197654   T   T   T
 13.8928237818286426  2.1856800000000001 21.1727786265933915   T   T   T
 14.7176500509412644  3.9030000000000005 22.0293583212988864   T   T   T
 11.9276752038615115  1.3009999999999999 21.2100212220153708   T   T   T
  7.8301788493402578  9.9916800000000006 10.8938222901274724   F   F   F
 10.4300999782775889  5.6203199999999995 11.8621297710989015   F   F   F
 13.1250479662861306  8.2223199999999999 12.7559520612263704   F   F   F
 12.8057714550578190  7.3896800000000002 10.0000000000000018   F   F   F
 13.6305977241704390  9.1069999999999993 10.8565796947054949   F   F   F
 10.8406228770906896  6.5049999999999999 10.0372425954219793   F   F   F
 10.7493764895059023  9.9916800000000006 14.6180818323252684   F   F   F
 13.3492976184432308  5.6203199999999995 15.5863893132966975   F   F   F
  8.3737050127256705  8.2223199999999999 16.4802116034241664   F   F   F
  8.0544285014973589  7.3896800000000002 13.7242595421977978   F   F   F
  8.8792547706099807  9.1069999999999993 14.5808392369032926   F   F   F
 13.7598205172563297  6.5049999999999999 13.7615021376197770   F   F   F
 13.6685741296715442  9.9916800000000006 18.3423413745230661   T   T   T
  8.5979546648827689  5.6203199999999995 19.3106488554944988   T   T   T
 11.2929026528913123  8.2223199999999999 20.2044711456219659   T   T   T
 10.9736261416630008  7.3896800000000002 17.4485190843955991   T   T   T
 11.7984524107756208  9.1069999999999993 18.3050987791010940   T   T   T
  9.0084775636958696  6.5049999999999999 17.4857616798175712   T   T   T
  8.9172311761110823  9.9916800000000006 22.0666009167208657   T   T   T
 11.5171523050484108  5.6203199999999995 23.0349083976922913   T   T   T
 14.2121002930569542  8.2223199999999999 23.9287306878197654   T   T   T
 13.8928237818286426  7.3896800000000002 21.1727786265933915   T   T   T
 14.7176500509412644  9.1069999999999993 22.0293583212988864   T   T   T
 11.9276752038615115  6.5049999999999999 21.2100212220153708   T   T   T
  7.8301788493402578 15.1956799999999994 10.8938222901274724   F   F   F
 10.4300999782775889 10.8243200000000002 11.8621297710989015   F   F   F
 13.1250479662861306 13.4263200000000005 12.7559520612263704   F   F   F
 12.8057714550578190 12.5936799999999991 10.0000000000000018   F   F   F
 13.6305977241704390 14.3109999999999999 10.8565796947054949   F   F   F
 10.8406228770906896 11.7089999999999996 10.0372425954219793   F   F   F
 10.7493764895059023 15.1956799999999994 14.6180818323252684   F   F   F
 13.3492976184432308 10.8243200000000002 15.5863893132966975   F   F   F
  8.3737050127256705 13.4263200000000005 16.4802116034241664   F   F   F
  8.0544285014973589 12.5936799999999991 13.7242595421977978   F   F   F
  8.8792547706099807 14.3109999999999999 14.5808392369032926   F   F   F
 13.7598205172563297 11.7089999999999996 13.7615021376197770   F   F   F
 13.6685741296715442 15.1956799999999994 18.3423413745230661   T   T   T
  8.5979546648827689 10.8243200000000002 19.3106488554944988   T   T   T
 11.2929026528913123 13.4263200000000005 20.2044711456219659   T   T   T
 10.9736261416630008 12.5936799999999991 17.4485190843955991   T   T   T
 11.7984524107756208 14.3109999999999999 18.3050987791010940   T   T   T
  9.0084775636958696 11.7089999999999996 17.4857616798175712   T   T   T
  8.9172311761110823 15.1956799999999994 22.0666009167208657   T   T   T
 11.5171523050484108 10.8243200000000002 23.0349083976922913   T   T   T
 14.2121002930569542 13.4263200000000005 23.9287306878197654   T   T   T
 13.8928237818286426 12.5936799999999991 21.1727786265933915   T   T   T
 14.7176500509412644 14.3109999999999999 22.0293583212988864   T   T   T
 11.9276752038615115 11.7089999999999996 21.2100212220153708   T   T   T
  7.8301788493402578 20.3996800000000000 10.8938222901274724   F   F   F
 10.4300999782775889 16.0283199999999972 11.8621297710989015   F   F   F
 13.1250479662861306 18.6303199999999975 12.7559520612263704   F   F   F
 12.8057714550578190 17.7976799999999997 10.0000000000000018   F   F   F
 13.6305977241704390 19.5150000000000006 10.8565796947054949   F   F   F
 10.8406228770906896 16.9129999999999967 10.0372425954219793   F   F   F
 10.7493764895059023 20.3996800000000000 14.6180818323252684   F   F   F
 13.3492976184432308 16.0283199999999972 15.5863893132966975   F   F   F
  8.3737050127256705 18.6303199999999975 16.4802116034241664   F   F   F
  8.0544285014973589 17.7976799999999997 13.7242595421977978   F   F   F
  8.8792547706099807 19.5150000000000006 14.5808392369032926   F   F   F
 13.7598205172563297 16.9129999999999967 13.7615021376197770   F   F   F
 13.6685741296715442 20.3996800000000000 18.3423413745230661   T   T   T
  8.5979546648827689 16.0283199999999972 19.3106488554944988   T   T   T
 11.2929026528913123 18.6303199999999975 20.2044711456219659   T   T   T
 10.9736261416630008 17.7976799999999997 17.4485190843955991   T   T   T
 11.7984524107756208 19.5150000000000006 18.3050987791010940   T   T   T
  9.0084775636958696 16.9129999999999967 17.4857616798175712   T   T   T
  8.9172311761110823 20.3996800000000000 22.0666009167208657   T   T   T
 11.5171523050484108 16.0283199999999972 23.0349083976922913   T   T   T
 14.2121002930569542 18.6303199999999975 23.9287306878197654   T   T   T
 13.8928237818286426 17.7976799999999997 21.1727786265933915   T   T   T
 14.7176500509412644 19.5150000000000006 22.0293583212988864   T   T   T
 11.9276752038615115 16.9129999999999967 21.2100212220153708   T   T   T
 15.5007194430663606  4.7876800000000008 10.8938222901274724   F   F   F
 18.1006405720036909  0.4163199999999999 11.8621297710989015   F   F   F
 20.7955885600122343  3.0183200000000001 12.7559520612263704   F   F   F
 20.4763120487839245  2.1856800000000001 10.0000000000000018   F   F   F
 21.3011383178965445  3.9030000000000005 10.8565796947054949   F   F   F
 18.5111634708167934  1.3009999999999999 10.0372425954219793   F   F   F
 18.4199170832320043  4.7876800000000008 14.6180818323252684   F   F   F
 21.0198382121693328  0.4163199999999999 15.5863893132966975   F   F   F
 16.0442456064517742  3.0183200000000001 16.4802116034241664   F   F   F
 15.7249690952234626  2.1856800000000001 13.7242595421977978   F   F   F
 16.5497953643360844  3.9030000000000005 14.5808392369032926   F   F   F
 21.4303611109824317  1.3009999999999999 13.7615021376197770   F   F   F
 21.3391147233976461  4.7876800000000008 18.3423413745230661   T   T   T
 16.2684952586088727  0.4163199999999999 19.3106488554944988   T   T   T
 18.9634432466174161  3.0183200000000001 20.2044711456219659   T   T   T
 18.6441667353891027  2.1856800000000001 17.4485190843955991   T   T   T
 19.4689930045017263  3.9030000000000005 18.3050987791010940   T   T   T
 16.6790181574219716  1.3009999999999999 17.4857616798175712   T   T   T
 16.5877717698371860  4.7876800000000008 22.0666009167208657   T   T   T
 19.1876928987745146  0.4163199999999999 23.0349083976922913   T   T   T
 21.8826408867830580  3.0183200000000001 23.9287306878197654   T   T   T
 21.5633643755547482  2.1856800000000001 21.1727786265933915   T   T   T
 22.3881906446673682  3.9030000000000005 22.0293583212988864   T   T   T
 19.5982157975876135  1.3009999999999999 21.2100212220153708   T   T   T
 15.5007194430663606  9.9916800000000006 10.8938222901274724   F   F   F
 18.1006405720036909  5.6203199999999995 11.8621297710989015   F   F   F
 20.7955885600122343  8.2223199999999999 12.7559520612263704   F   F   F
 20.4763120487839245  7.3896800000000002 10.0000000000000018   F   F   F
 21.3011383178965445  9.1069999999999993 10.8565796947054949   F   F   F
 18.5111634708167934  6.5049999999999999 10.0372425954219793   F   F   F
 18.4199170832320043  9.9916800000000006 14.6180818323252684   F   F   F
 21.0198382121693328  5.6203199999999995 15.5863893132966975   F   F   F
 16.0442456064517742  8.2223199999999999 16.4802116034241664   F   F   F
 15.7249690952234626  7.3896800000000002 13.7242595421977978   F   F   F
 16.5497953643360844  9.1069999999999993 14.5808392369032926   F   F   F
 21.4303611109824317  6.5049999999999999 13.7615021376197770   F   F   F
 21.3391147233976461  9.9916800000000006 18.3423413745230661   T   T   T
 16.2684952586088727  5.6203199999999995 19.3106488554944988   T   T   T
 18.9634432466174161  8.2223199999999999 20.2044711456219659   T   T   T
 18.6441667353891027  7.3896800000000002 17.4485190843955991   T   T   T
 19.4689930045017263  9.1069999999999993 18.3050987791010940   T   T   T
 16.6790181574219716  6.5049999999999999 17.4857616798175712   T   T   T
 16.5877717698371860  9.9916800000000006 22.0666009167208657   T   T   T
 19.1876928987745146  5.6203199999999995 23.0349083976922913   T   T   T
 21.8826408867830580  8.2223199999999999 23.9287306878197654   T   T   T
 21.5633643755547482  7.3896800000000002 21.1727786265933915   T   T   T
 22.3881906446673682  9.1069999999999993 22.0293583212988864   T   T   T
 19.5982157975876135  6.5049999999999999 21.2100212220153708   T   T   T
 15.5007194430663606 15.1956799999999994 10.8938222901274724   F   F   F
 18.1006405720036909 10.8243200000000002 11.8621297710989015   F   F   F
 20.7955885600122343 13.4263200000000005 12.7559520612263704   F   F   F
 20.4763120487839245 12.5936799999999991 10.0000000000000018   F   F   F
 21.3011383178965445 14.3109999999999999 10.8565796947054949   F   F   F
 18.5111634708167934 11.7089999999999996 10.0372425954219793   F   F   F
 18.4199170832320043 15.1956799999999994 14.6180818323252684   F   F   F
 21.0198382121693328 10.8243200000000002 15.5863893132966975   F   F   F
 16.0442456064517742 13.4263200000000005 16.4802116034241664   F   F   F
 15.7249690952234626 12.5936799999999991 13.7242595421977978   F   F   F
 16.5497953643360844 14.3109999999999999 14.5808392369032926   F   F   F
 21.4303611109824317 11.7089999999999996 13.7615021376197770   F   F   F
 21.3391147233976461 15.1956799999999994 18.3423413745230661   T   T   T
 16.2684952586088727 10.8243200000000002 19.3106488554944988   T   T   T
 18.9634432466174161 13.4263200000000005 20.2044711456219659   T   T   T
 18.6441667353891027 12.5936799999999991 17.4485190843955991   T   T   T
 19.4689930045017263 14.3109999999999999 18.3050987791010940   T   T   T
 16.6790181574219716 11.7089999999999996 17.4857616798175712   T   T   T
 16.5877717698371860 15.1956799999999994 22.0666009167208657   T   T   T
 19.1876928987745146 10.8243200000000002 23.0349083976922913   T   T   T
 21.8826408867830580 13.4263200000000005 23.9287306878197654   T   T   T
 21.5633643755547482 12.5936799999999991 21.1727786265933915   T   T   T
 22.3881906446673682 14.3109999999999999 22.0293583212988864   T   T   T
 19.5982157975876135 11.7089999999999996 21.2100212220153708   T   T   T
 15.5007194430663606 20.3996800000000000 10.8938222901274724   F   F   F
 18.1006405720036909 16.0283199999999972 11.8621297710989015   F   F   F
 20.7955885600122343 18.6303199999999975 12.7559520612263704   F   F   F
 20.4763120487839245 17.7976799999999997 10.0000000000000018   F   F   F
 21.3011383178965445 19.5150000000000006 10.8565796947054949   F   F   F
 18.5111634708167934 16.9129999999999967 10.0372425954219793   F   F   F
 18.4199170832320043 20.3996800000000000 14.6180818323252684   F   F   F
 21.0198382121693328 16.0283199999999972 15.5863893132966975   F   F   F
 16.0442456064517742 18.6303199999999975 16.4802116034241664   F   F   F
 15.7249690952234626 17.7976799999999997 13.7242595421977978   F   F   F
 16.5497953643360844 19.5150000000000006 14.5808392369032926   F   F   F
 21.4303611109824317 16.9129999999999967 13.7615021376197770   F   F   F
 21.3391147233976461 20.3996800000000000 18.3423413745230661   T   T   T
 16.2684952586088727 16.0283199999999972 19.3106488554944988   T   T   T
 18.9634432466174161 18.6303199999999975 20.2044711456219659   T   T   T
 18.6441667353891027 17.7976799999999997 17.4485190843955991   T   T   T
 19.4689930045017263 19.5150000000000006 18.3050987791010940   T   T   T
 16.6790181574219716 16.9129999999999967 17.4857616798175712   T   T   T
 16.5877717698371860 20.3996800000000000 22.0666009167208657   T   T   T
 19.1876928987745146 16.0283199999999972 23.0349083976922913   T   T   T
 21.8826408867830580 18.6303199999999975 23.9287306878197654   T   T   T
 21.5633643755547482 17.7976799999999997 21.1727786265933915   T   T   T
 22.3881906446673682 19.5150000000000006 22.0293583212988864   T   T   T
 19.5982157975876135 16.9129999999999967 21.2100212220153708   T   T   T
 23.1712600367924644  4.7876800000000008 10.8938222901274724   F   F   F
 25.7711811657297964  0.4163199999999999 11.8621297710989015   F   F   F
 28.4661291537383363  3.0183200000000001 12.7559520612263704   F   F   F
 28.1468526425100265  2.1856800000000001 10.0000000000000018   F   F   F
 28.9716789116226465  3.9030000000000005 10.8565796947054949   F   F   F
 26.1817040645428953  1.3009999999999999 10.0372425954219793   F   F   F
 26.0904576769581098  4.7876800000000008 14.6180818323252684   F   F   F
 28.6903788058954348  0.4163199999999999 15.5863893132966975   F   F   F
 23.7147862001778762  3.0183200000000001 16.4802116034241664   F   F   F
 23.3955096889495664  2.1856800000000001 13.7242595421977978   F   F   F
 24.2203359580621864  3.9030000000000005 14.5808392369032926   F   F   F
 29.1009017047085372  1.3009999999999999 13.7615021376197770   F   F   F
 29.0096553171237517  4.7876800000000008 18.3423413745230661   T   T   T
 23.9390358523349747  0.4163199999999999 19.3106488554944988   T   T   T
 26.6339838403435181  3.0183200000000001 20.2044711456219659   T   T   T
 26.3147073291152083  2.1856800000000001 17.4485190843955991   T   T   T
 27.1395335982278283  3.9030000000000005 18.3050987791010940   T   T   T
 24.3495587511480771  1.3009999999999999 17.4857616798175712   T   T   T
 24.2583123635632880  4.7876800000000008 22.0666009167208657   T   T   T
 26.8582334925006165  0.4163199999999999 23.0349083976922913   T   T   T
 29.5531814805091599  3.0183200000000001 23.9287306878197654   T   T   T
 29.2339049692808501  2.1856800000000001 21.1727786265933915   T   T   T
 30.0587312383934702  3.9030000000000005 22.0293583212988864   T   T   T
 27.2687563913137190  1.3009999999999999 21.2100212220153708   T   T   T
 23.1712600367924644  9.9916800000000006 10.8938222901274724   F   F   F
 25.7711811657297964  5.6203199999999995 11.8621297710989015   F   F   F
 28.4661291537383363  8.2223199999999999 12.7559520612263704   F   F   F
 28.1468526425100265  7.3896800000000002 10.0000000000000018   F   F   F
 28.9716789116226465  9.1069999999999993 10.8565796947054949   F   F   F
 26.1817040645428953  6.5049999999999999 10.0372425954219793   F   F   F
 26.0904576769581098  9.9916800000000006 14.6180818323252684   F   F   F
 28.6903788058954348  5.6203199999999995 15.5863893132966975   F   F   F
 23.7147862001778762  8.2223199999999999 16.4802116034241664   F   F   F
 23.3955096889495664  7.3896800000000002 13.7242595421977978   F   F   F
 24.2203359580621864  9.1069999999999993 14.5808392369032926   F   F   F
 29.1009017047085372  6.5049999999999999 13.7615021376197770   F   F   F
 29.0096553171237517  9.9916800000000006 18.3423413745230661   T   T   T
 23.9390358523349747  5.6203199999999995 19.3106488554944988   T   T   T
 26.6339838403435181  8.2223199999999999 20.2044711456219659   T   T   T
 26.3147073291152083  7.3896800000000002 17.4485190843955991   T   T   T
 27.1395335982278283  9.1069999999999993 18.3050987791010940   T   T   T
 24.3495587511480771  6.5049999999999999 17.4857616798175712   T   T   T
 24.2583123635632880  9.9916800000000006 22.0666009167208657   T   T   T
 26.8582334925006165  5.6203199999999995 23.0349083976922913   T   T   T
 29.5531814805091599  8.2223199999999999 23.9287306878197654   T   T   T
 29.2339049692808501  7.3896800000000002 21.1727786265933915   T   T   T
 30.0587312383934702  9.1069999999999993 22.0293583212988864   T   T   T
 27.2687563913137190  6.5049999999999999 21.2100212220153708   T   T   T
 23.1712600367924644 15.1956799999999994 10.8938222901274724   F   F   F
 25.7711811657297964 10.8243200000000002 11.8621297710989015   F   F   F
 28.4661291537383363 13.4263200000000005 12.7559520612263704   F   F   F
 28.1468526425100265 12.5936799999999991 10.0000000000000018   F   F   F
 28.9716789116226465 14.3109999999999999 10.8565796947054949   F   F   F
 26.1817040645428953 11.7089999999999996 10.0372425954219793   F   F   F
 26.0904576769581098 15.1956799999999994 14.6180818323252684   F   F   F
 28.6903788058954348 10.8243200000000002 15.5863893132966975   F   F   F
 23.7147862001778762 13.4263200000000005 16.4802116034241664   F   F   F
 23.3955096889495664 12.5936799999999991 13.7242595421977978   F   F   F
 24.2203359580621864 14.3109999999999999 14.5808392369032926   F   F   F
 29.1009017047085372 11.7089999999999996 13.7615021376197770   F   F   F
 29.0096553171237517 15.1956799999999994 18.3423413745230661   T   T   T
 23.9390358523349747 10.8243200000000002 19.3106488554944988   T   T   T
 26.6339838403435181 13.4263200000000005 20.2044711456219659   T   T   T
 26.3147073291152083 12.5936799999999991 17.4485190843955991   T   T   T
 27.1395335982278283 14.3109999999999999 18.3050987791010940   T   T   T
 24.3495587511480771 11.7089999999999996 17.4857616798175712   T   T   T
 24.2583123635632880 15.1956799999999994 22.0666009167208657   T   T   T
 26.8582334925006165 10.8243200000000002 23.0349083976922913   T   T   T
 29.5531814805091599 13.4263200000000005 23.9287306878197654   T   T   T
 29.2339049692808501 12.5936799999999991 21.1727786265933915   T   T   T
 30.0587312383934702 14.3109999999999999 22.0293583212988864   T   T   T
 27.2687563913137190 11.7089999999999996 21.2100212220153708   T   T   T
 23.1712600367924644 20.3996800000000000 10.8938222901274724   F   F   F
 25.7711811657297964 16.0283199999999972 11.8621297710989015   F   F   F
 28.4661291537383363 18.6303199999999975 12.7559520612263704   F   F   F
 28.1468526425100265 17.7976799999999997 10.0000000000000018   F   F   F
 28.9716789116226465 19.5150000000000006 10.8565796947054949   F   F   F
 26.1817040645428953 16.9129999999999967 10.0372425954219793   F   F   F
 26.0904576769581098 20.3996800000000000 14.6180818323252684   F   F   F
 28.6903788058954348 16.0283199999999972 15.5863893132966975   F   F   F
 23.7147862001778762 18.6303199999999975 16.4802116034241664   F   F   F
 23.3955096889495664 17.7976799999999997 13.7242595421977978   F   F   F
 24.2203359580621864 19.5150000000000006 14.5808392369032926   F   F   F
 29.1009017047085372 16.9129999999999967 13.7615021376197770   F   F   F
 29.0096553171237517 20.3996800000000000 18.3423413745230661   T   T   T
 23.9390358523349747 16.0283199999999972 19.3106488554944988   T   T   T
 26.6339838403435181 18.6303199999999975 20.2044711456219659   T   T   T
 26.3147073291152083 17.7976799999999997 17.4485190843955991   T   T   T
 27.1395335982278283 19.5150000000000006 18.3050987791010940   T   T   T
 24.3495587511480771 16.9129999999999967 17.4857616798175712   T   T   T
 24.2583123635632880 20.3996800000000000 22.0666009167208657   T   T   T
 26.8582334925006165 16.0283199999999972 23.0349083976922913   T   T   T
 29.5531814805091599 18.6303199999999975 23.9287306878197654   T   T   T
 29.2339049692808501 17.7976799999999997 21.1727786265933915   T   T   T
 30.0587312383934702 19.5150000000000006 22.0293583212988864   T   T   T
 27.2687563913137190 16.9129999999999967 21.2100212220153708   T   T   T
