Ni Mo B  Mo B  Mo B  Mo B  Mo B  Mo B  Mo B  Mo B  Au
 1.0000000000000000
     7.4670476093299420    0.0000000000000000    0.0000000000000000
     3.7335238046649710    6.4666529209475900    0.0000000000000000
     0.0000000000000000    0.0000000000000000   27.7992225182640702
 Ni  Mo  B   Mo  B   Mo  B   Mo  B   Mo  B   Mo  B   Mo  B   Mo  B   Au 
  36   8   8   8   8   8   8   8   8   8   8   8   8   8   8   8   8   2
Selective dynamics
Cartesian
  0.0000000000000000  0.0000000000000000  8.0000000000000000   F   F   F
  2.4890158697766473  0.0000000000000000  8.0000000000000000   F   F   F
  4.9780317395532947  0.0000000000000000  8.0000000000000000   F   F   F
  1.2445079348883237  2.1555509736491967  8.0000000000000000   F   F   F
  3.7335238046649710  2.1555509736491967  8.0000000000000000   F   F   F
  6.2225396744416184  2.1555509736491967  8.0000000000000000   F   F   F
  2.4890158697766473  4.3111019472983934  8.0000000000000000   F   F   F
  4.9780317395532947  4.3111019472983934  8.0000000000000000   F   F   F
  7.4670476093299420  4.3111019472983934  8.0000000000000000   F   F   F
  1.2445079348883237  0.7185169912163989 10.0322729475474830   F   F   F
  3.7335238046649706  0.7185169912163989 10.0322729475474830   F   F   F
  6.2225396744416193  0.7185169912163989 10.0322729475474830   F   F   F
  2.4890158697766473  2.8740679648655956 10.0322729475474830   F   F   F
  4.9780317395532947  2.8740679648655956 10.0322729475474830   F   F   F
  7.4670476093299429  2.8740679648655956 10.0322729475474830   F   F   F
  3.7335238046649710  5.0296189385147922 10.0322729475474830   F   F   F
  6.2225396744416184  5.0296189385147922 10.0322729475474830   F   F   F
  8.7115555442182657  5.0296189385147922 10.0322729475474830   F   F   F
  0.0000000000000000  1.4370339824327978 12.0645458950949660   T   T   T
  2.4890158697766473  1.4370339824327978 12.0645458950949660   T   T   T
  4.9780317395532947  1.4370339824327978 12.0645458950949660   T   T   T
  1.2445079348883237  3.5925849560819940 12.0645458950949660   T   T   T
  3.7335238046649710  3.5925849560819940 12.0645458950949660   T   T   T
  6.2225396744416184  3.5925849560819940 12.0645458950949660   T   T   T
  2.4890158697766473  5.7481359297311911 12.0645458950949660   T   T   T
  4.9780317395532947  5.7481359297311911 12.0645458950949660   T   T   T
  7.4670476093299420  5.7481359297311911 12.0645458950949660   T   T   T
  0.0000000000000000  0.0000000000000000 14.0968188426424490   T   T   T
  2.4890158697766473  0.0000000000000000 14.0968188426424490   T   T   T
  4.9780317395532947  0.0000000000000000 14.0968188426424490   T   T   T
  1.2445079348883237  2.1555509736491967 14.0968188426424490   T   T   T
  3.7335238046649710  2.1555509736491967 14.0968188426424490   T   T   T
  6.2225396744416184  2.1555509736491967 14.0968188426424490   T   T   T
  2.4890158697766473  4.3111019472983934 14.0968188426424490   T   T   T
  4.9780317395532947  4.3111019472983934 14.0968188426424490   T   T   T
  7.4670476093299420  4.3111019472983934 14.0968188426424490   T   T   T
  2.1991020894901627 13.7806644376398300 16.2968188426424483   T   T   T
  0.0000000000000001  9.5783845074978089 16.8420248942647426   T   T   T
  3.2986531342352441  5.2346339263439612 16.2968188426424483   T   T   T
  1.0995510447450814  1.0323539962019381 16.8420248942647426   T   T   T
  2.1991020894901627  3.5943378869755733 17.6183983117748895   T   T   T
  0.0000000000000005  7.7966178171175953 17.0731922601525952   T   T   T
  1.0995510447450809 12.1403683982714465 17.6183983117748895   T   T   T
 -1.0995510447450814 16.3426483284134640 17.0731922601525952   T   T   T
  2.1991020894901627 11.2424873598340529 16.6261232978223141   T   T   T
 -0.0000000000000004  7.0402074296920318 17.1713293494446084   T   T   T
  3.2986531342352445  2.6964568485381815 16.6261232978223141   T   T   T
 -1.0995510447450823 15.5862379409878997 17.1713293494446084   T   T   T
  2.1991020894901623  6.1325149647813539 17.2890938565950236   T   T   T
 -0.0000000000000003 10.3347948949233714 16.7438878049727293   T   T   T
  1.0995510447450807 14.6785454760772236 17.2890938565950236   T   T   T
  1.0995510447450811  1.7887643836275005 16.7438878049727293   T   T   T
  0.0000000000000002 14.0636057396634921 18.4776430491316255   T   T   T
  2.1991020894901618  9.8613258095214711 19.0228491007539198   T   T   T
  1.0995510447450811  5.5175752283676243 18.4776430491316255   T   T   T
  3.2986531342352432  1.3152952982256005 19.0228491007539198   T   T   T
  0.0000000000000001  3.8772791889992355 19.7992225182640702   T   T   T
  2.1991020894901627  8.0795591191412566 19.2540164666417724   T   T   T
 -1.0995510447450816 12.4233097002951087 19.7992225182640667   T   T   T
  1.0995510447450798 16.6255896304371262 19.2540164666417724   T   T   T
  0.0000000000000004 11.5254286618577151 18.8069475043114913   T   T   T
  2.1991020894901627  7.3231487317156949 19.3521535559337856   T   T   T
  1.0995510447450818  2.9793981505618441 18.8069475043114913   T   T   T
  1.0995510447450814 15.8691792430115601 19.3521535559337856   T   T   T
 -0.0000000000000010  6.4154562668050179 19.4699180630842008   T   T   T
  2.1991020894901618 10.6177361969470336 18.9247120114619065   T   T   T
 -1.0995510447450818 14.9614867781008858 19.4699180630842008   T   T   T
  3.2986531342352432  2.0717056856511631 18.9247120114619065   T   T   T
  0.0000000000000000 30.8727254602315710 16.2968188426424483   T   T   T
 -2.1991020894901627 26.6704455300895518 16.8420248942647426   T   T   T
  1.0995510447450814 22.3266949489357032 16.2968188426424483   T   T   T
 -1.0995510447450814 18.1244150187936803 16.8420248942647426   T   T   T
  0.0000000000000000 20.6863989095673162 17.6183983117748895   T   T   T
 -2.1991020894901623 24.8886788397093390 17.0731922601525952   T   T   T
 -1.0995510447450818 29.2324294208631912 17.6183983117748895   T   T   T
 -3.2986531342352441 33.4347093510052105 17.0731922601525952   T   T   T
  0.0000000000000000 28.3345483824257940 16.6261232978223141   T   T   T
 -2.1991020894901632 24.1322684522837747 17.1713293494446084   T   T   T
  1.0995510447450818 19.7885178711299261 16.6261232978223141   T   T   T
 -3.2986531342352450 32.6782989635796426 17.1713293494446084   T   T   T
 -0.0000000000000004 23.2245759873730968 17.2890938565950236   T   T   T
 -2.1991020894901632 27.4268559175151125 16.7438878049727293   T   T   T
 -1.0995510447450820 31.7706064986689682 17.2890938565950236   T   T   T
 -1.0995510447450816 18.8808254062192447 16.7438878049727293   T   T   T
 -2.1991020894901623 31.1556667622552368 18.4776430491316255   T   T   T
 -0.0000000000000009 26.9533868321132140 19.0228491007539198   T   T   T
 -1.0995510447450816 22.6096362509593689 18.4776430491316255   T   T   T
  1.0995510447450805 18.4073563208173425 19.0228491007539198   T   T   T
 -2.1991020894901627 20.9693402115909784 19.7992225182640702   T   T   T
  0.0000000000000000 25.1716201417330012 19.2540164666417724   T   T   T
 -3.2986531342352441 29.5153707228868498 19.7992225182640667   T   T   T
 -1.0995510447450829 33.7176506530288691 19.2540164666417724   T   T   T
 -2.1991020894901623 28.6174896844494597 18.8069475043114913   T   T   T
  0.0000000000000000 24.4152097543074369 19.3521535559337856   T   T   T
 -1.0995510447450809 20.0714591731535883 18.8069475043114913   T   T   T
 -1.0995510447450814 32.9612402656033012 19.3521535559337856   T   T   T
 -2.1991020894901636 23.5075172893967590 19.4699180630842008   T   T   T
 -0.0000000000000009 27.7097972195387783 18.9247120114619065   T   T   T
 -3.2986531342352445 32.0535478006926269 19.4699180630842008   T   T   T
  1.0995510447450805 19.1637667082429068 18.9247120114619065   T   T   T
  6.5973062684704882 13.7806644376398300 16.2968188426424483   T   T   T
  4.3982041789803255  9.5783845074978089 16.8420248942647426   T   T   T
  7.6968573132155695  5.2346339263439612 16.2968188426424483   T   T   T
  5.4977552237254068  1.0323539962019381 16.8420248942647426   T   T   T
  6.5973062684704882  3.5943378869755733 17.6183983117748895   T   T   T
  4.3982041789803263  7.7966178171175953 17.0731922601525952   T   T   T
  5.4977552237254059 12.1403683982714465 17.6183983117748895   T   T   T
  3.2986531342352441 16.3426483284134640 17.0731922601525952   T   T   T
  6.5973062684704882 11.2424873598340529 16.6261232978223141   T   T   T
  4.3982041789803255  7.0402074296920318 17.1713293494446084   T   T   T
  7.6968573132155704  2.6964568485381815 16.6261232978223141   T   T   T
  3.2986531342352432 15.5862379409878997 17.1713293494446084   T   T   T
  6.5973062684704882  6.1325149647813539 17.2890938565950236   T   T   T
  4.3982041789803255 10.3347948949233714 16.7438878049727293   T   T   T
  5.4977552237254059 14.6785454760772236 17.2890938565950236   T   T   T
  5.4977552237254068  1.7887643836275005 16.7438878049727293   T   T   T
  4.3982041789803255 14.0636057396634921 18.4776430491316255   T   T   T
  6.5973062684704873  9.8613258095214711 19.0228491007539198   T   T   T
  5.4977552237254068  5.5175752283676243 18.4776430491316255   T   T   T
  7.6968573132155687  1.3152952982256005 19.0228491007539198   T   T   T
  4.3982041789803255  3.8772791889992355 19.7992225182640702   T   T   T
  6.5973062684704882  8.0795591191412566 19.2540164666417724   T   T   T
  3.2986531342352441 12.4233097002951087 19.7992225182640667   T   T   T
  5.4977552237254050 16.6255896304371262 19.2540164666417724   T   T   T
  4.3982041789803255 11.5254286618577151 18.8069475043114913   T   T   T
  6.5973062684704882  7.3231487317156949 19.3521535559337856   T   T   T
  5.4977552237254077  2.9793981505618441 18.8069475043114913   T   T   T
  5.4977552237254068 15.8691792430115601 19.3521535559337856   T   T   T
  4.3982041789803246  6.4154562668050179 19.4699180630842008   T   T   T
  6.5973062684704873 10.6177361969470336 18.9247120114619065   T   T   T
  3.2986531342352436 14.9614867781008858 19.4699180630842008   T   T   T
  7.6968573132155687  2.0717056856511631 18.9247120114619065   T   T   T
  4.3982041789803255 30.8727254602315710 16.2968188426424483   T   T   T
  2.1991020894901627 26.6704455300895518 16.8420248942647426   T   T   T
  5.4977552237254068 22.3266949489357032 16.2968188426424483   T   T   T
  3.2986531342352441 18.1244150187936803 16.8420248942647426   T   T   T
  4.3982041789803255 20.6863989095673162 17.6183983117748895   T   T   T
  2.1991020894901632 24.8886788397093390 17.0731922601525952   T   T   T
  3.2986531342352436 29.2324294208631912 17.6183983117748895   T   T   T
  1.0995510447450814 33.4347093510052105 17.0731922601525952   T   T   T
  4.3982041789803255 28.3345483824257940 16.6261232978223141   T   T   T
  2.1991020894901623 24.1322684522837747 17.1713293494446084   T   T   T
  5.4977552237254077 19.7885178711299261 16.6261232978223141   T   T   T
  1.0995510447450805 32.6782989635796426 17.1713293494446084   T   T   T
  4.3982041789803255 23.2245759873730968 17.2890938565950236   T   T   T
  2.1991020894901623 27.4268559175151125 16.7438878049727293   T   T   T
  3.2986531342352432 31.7706064986689682 17.2890938565950236   T   T   T
  3.2986531342352441 18.8808254062192447 16.7438878049727293   T   T   T
  2.1991020894901632 31.1556667622552368 18.4776430491316255   T   T   T
  4.3982041789803246 26.9533868321132140 19.0228491007539198   T   T   T
  3.2986531342352441 22.6096362509593689 18.4776430491316255   T   T   T
  5.4977552237254059 18.4073563208173425 19.0228491007539198   T   T   T
  2.1991020894901627 20.9693402115909784 19.7992225182640702   T   T   T
  4.3982041789803255 25.1716201417330012 19.2540164666417724   T   T   T
  1.0995510447450811 29.5153707228868498 19.7992225182640667   T   T   T
  3.2986531342352423 33.7176506530288691 19.2540164666417724   T   T   T
  2.1991020894901632 28.6174896844494597 18.8069475043114913   T   T   T
  4.3982041789803255 24.4152097543074369 19.3521535559337856   T   T   T
  3.2986531342352445 20.0714591731535883 18.8069475043114913   T   T   T
  3.2986531342352441 32.9612402656033012 19.3521535559337856   T   T   T
  2.1991020894901618 23.5075172893967590 19.4699180630842008   T   T   T
  4.3982041789803246 27.7097972195387783 18.9247120114619065   T   T   T
  1.0995510447450809 32.0535478006926269 19.4699180630842008   T   T   T
  5.4977552237254059 19.1637667082429068 18.9247120114619065   T   T   T
  1.4042225355894786 14.1524395814938142 21.5992225182640709   T   T   T
  3.8042225355894788 14.1524395814938142 21.5992225182640709   T   T   T
