Mo B  Mo B  Mo B  Mo B  Mo B  Mo B  Mo B  Mo B  Mo B  Mo B  Mo B  Mo B  Mo B  Mo B  Mo B  Mo B  Mo B  Mo B  Mo B  Mo B  Mo B  Mo B  Mo B  Mo B  Mo B  Mo B  Mo B  Mo B  Mo B  Mo B 
 1.0000000000000000
    45.5450000000000017    0.0000000000000000    0.0000000000000000
     0.0000000000000000    9.3300000000000001    0.0000000000000000
     0.0000000000000000    0.0000000000000000   31.1533000000000015
 Mo  B   Mo  B   Mo  B   Mo  B   Mo  B   Mo  B   Mo  B   Mo  B   Mo  B   Mo  B   Mo  B   Mo  B   Mo  B   Mo  B   Mo  B   Mo  B   Mo  B   Mo  B   Mo  B   Mo  B   Mo  B   Mo  B   Mo  B   Mo  B   Mo  B   Mo  B   Mo  B   Mo  B   Mo  B   Mo  B  
   8   8   8   8   8   8   8   8   8   8   8   8   8   8   8   8   8   8   8   8   8   8   8   8   8   8   8   8   8   8   8   8   8   8   8   8   8   8   8   8   8   8   8   8   8   8   8   8   8   8   8   8   8   8   8   8   8   8   8   8
Selective dynamics
Cartesian
  8.0000000000000018  0.0000000000000000 10.4407999999999994   F   F   F
  9.5550000000000015  1.5549999999999999 14.6783000000000001   F   F   F
  8.0000000000000018  1.5549999999999999 18.9157999999999973   T   T   T
  9.5550000000000015  0.0000000000000000 23.1532999999999980   T   T   T
  8.0000000000000018  0.0000000000000000 20.7124999999999986   T   T   T
  9.5550000000000015  1.5549999999999999 16.4750000000000014   T   T   T
  8.0000000000000018  1.5549999999999999 12.2374999999999989   F   F   F
  9.5550000000000015  0.0000000000000000  7.9999999999999991   F   F   F
  8.0000000000000018  0.0000000000000000 13.0002499999999976   F   F   F
  9.5550000000000015  1.5549999999999999 17.2377499999999984   T   T   T
  8.0000000000000018  1.5549999999999999 21.4752499999999991   T   T   T
  9.5550000000000015  0.0000000000000000  8.7627499999999987   F   F   F
  8.0000000000000018  0.0000000000000000 18.1530500000000004   T   T   T
  9.5550000000000015  1.5549999999999999 13.9155499999999996   F   F   F
  8.0000000000000018  1.5549999999999999  9.6780499999999989   F   F   F
  9.5550000000000015  0.0000000000000000 22.3905499999999975   T   T   T
  8.0000000000000018  3.1099999999999999 10.4407999999999994   F   F   F
  9.5550000000000015  4.6650000000000000 14.6783000000000001   F   F   F
  8.0000000000000018  4.6650000000000000 18.9157999999999973   T   T   T
  9.5550000000000015  3.1099999999999999 23.1532999999999980   T   T   T
  8.0000000000000018  3.1099999999999999 20.7124999999999986   T   T   T
  9.5550000000000015  4.6650000000000000 16.4750000000000014   T   T   T
  8.0000000000000018  4.6650000000000000 12.2374999999999989   F   F   F
  9.5550000000000015  3.1099999999999999  7.9999999999999991   F   F   F
  8.0000000000000018  3.1099999999999999 13.0002499999999976   F   F   F
  9.5550000000000015  4.6650000000000000 17.2377499999999984   T   T   T
  8.0000000000000018  4.6650000000000000 21.4752499999999991   T   T   T
  9.5550000000000015  3.1099999999999999  8.7627499999999987   F   F   F
  8.0000000000000018  3.1099999999999999 18.1530500000000004   T   T   T
  9.5550000000000015  4.6650000000000000 13.9155499999999996   F   F   F
  8.0000000000000018  4.6650000000000000  9.6780499999999989   F   F   F
  9.5550000000000015  3.1099999999999999 22.3905499999999975   T   T   T
  8.0000000000000018  6.2199999999999998 10.4407999999999994   F   F   F
  9.5550000000000015  7.7749999999999995 14.6783000000000001   F   F   F
  8.0000000000000018  7.7749999999999995 18.9157999999999973   T   T   T
  9.5550000000000015  6.2199999999999998 23.1532999999999980   T   T   T
  8.0000000000000018  6.2199999999999998 20.7124999999999986   T   T   T
  9.5550000000000015  7.7749999999999995 16.4750000000000014   T   T   T
  8.0000000000000018  7.7749999999999995 12.2374999999999989   F   F   F
  9.5550000000000015  6.2199999999999998  7.9999999999999991   F   F   F
  8.0000000000000018  6.2199999999999998 13.0002499999999976   F   F   F
  9.5550000000000015  7.7749999999999995 17.2377499999999984   T   T   T
  8.0000000000000018  7.7749999999999995 21.4752499999999991   T   T   T
  9.5550000000000015  6.2199999999999998  8.7627499999999987   F   F   F
  8.0000000000000018  6.2199999999999998 18.1530500000000004   T   T   T
  9.5550000000000015  7.7749999999999995 13.9155499999999996   F   F   F
  8.0000000000000018  7.7749999999999995  9.6780499999999989   F   F   F
  9.5550000000000015  6.2199999999999998 22.3905499999999975   T   T   T
 11.1100000000000012  0.0000000000000000 10.4407999999999994   F   F   F
 12.6650000000000027  1.5549999999999999 14.6783000000000001   F   F   F
 11.1100000000000012  1.5549999999999999 18.9157999999999973   T   T   T
 12.6650000000000027  0.0000000000000000 23.1532999999999980   T   T   T
 11.1100000000000012  0.0000000000000000 20.7124999999999986   T   T   T
 12.6650000000000027  1.5549999999999999 16.4750000000000014   T   T   T
 11.1100000000000012  1.5549999999999999 12.2374999999999989   F   F   F
 12.6650000000000027  0.0000000000000000  7.9999999999999991   F   F   F
 11.1100000000000012  0.0000000000000000 13.0002499999999976   F   F   F
 12.6650000000000027  1.5549999999999999 17.2377499999999984   T   T   T
 11.1100000000000012  1.5549999999999999 21.4752499999999991   T   T   T
 12.6650000000000027  0.0000000000000000  8.7627499999999987   F   F   F
 11.1100000000000012  0.0000000000000000 18.1530500000000004   T   T   T
 12.6650000000000027  1.5549999999999999 13.9155499999999996   F   F   F
 11.1100000000000012  1.5549999999999999  9.6780499999999989   F   F   F
 12.6650000000000027  0.0000000000000000 22.3905499999999975   T   T   T
 11.1100000000000012  3.1099999999999999 10.4407999999999994   F   F   F
 12.6650000000000027  4.6650000000000000 14.6783000000000001   F   F   F
 11.1100000000000012  4.6650000000000000 18.9157999999999973   T   T   T
 12.6650000000000027  3.1099999999999999 23.1532999999999980   T   T   T
 11.1100000000000012  3.1099999999999999 20.7124999999999986   T   T   T
 12.6650000000000027  4.6650000000000000 16.4750000000000014   T   T   T
 11.1100000000000012  4.6650000000000000 12.2374999999999989   F   F   F
 12.6650000000000027  3.1099999999999999  7.9999999999999991   F   F   F
 11.1100000000000012  3.1099999999999999 13.0002499999999976   F   F   F
 12.6650000000000027  4.6650000000000000 17.2377499999999984   T   T   T
 11.1100000000000012  4.6650000000000000 21.4752499999999991   T   T   T
 12.6650000000000027  3.1099999999999999  8.7627499999999987   F   F   F
 11.1100000000000012  3.1099999999999999 18.1530500000000004   T   T   T
 12.6650000000000027  4.6650000000000000 13.9155499999999996   F   F   F
 11.1100000000000012  4.6650000000000000  9.6780499999999989   F   F   F
 12.6650000000000027  3.1099999999999999 22.3905499999999975   T   T   T
 11.1100000000000012  6.2199999999999998 10.4407999999999994   F   F   F
 12.6650000000000027  7.7749999999999995 14.6783000000000001   F   F   F
 11.1100000000000012  7.7749999999999995 18.9157999999999973   T   T   T
 12.6650000000000027  6.2199999999999998 23.1532999999999980   T   T   T
 11.1100000000000012  6.2199999999999998 20.7124999999999986   T   T   T
 12.6650000000000027  7.7749999999999995 16.4750000000000014   T   T   T
 11.1100000000000012  7.7749999999999995 12.2374999999999989   F   F   F
 12.6650000000000027  6.2199999999999998  7.9999999999999991   F   F   F
 11.1100000000000012  6.2199999999999998 13.0002499999999976   F   F   F
 12.6650000000000027  7.7749999999999995 17.2377499999999984   T   T   T
 11.1100000000000012  7.7749999999999995 21.4752499999999991   T   T   T
 12.6650000000000027  6.2199999999999998  8.7627499999999987   F   F   F
 11.1100000000000012  6.2199999999999998 18.1530500000000004   T   T   T
 12.6650000000000027  7.7749999999999995 13.9155499999999996   F   F   F
 11.1100000000000012  7.7749999999999995  9.6780499999999989   F   F   F
 12.6650000000000027  6.2199999999999998 22.3905499999999975   T   T   T
 14.2200000000000024  0.0000000000000000 10.4407999999999994   F   F   F
 15.7750000000000021  1.5549999999999999 14.6783000000000001   F   F   F
 14.2200000000000024  1.5549999999999999 18.9157999999999973   T   T   T
 15.7750000000000021  0.0000000000000000 23.1532999999999980   T   T   T
 14.2200000000000024  0.0000000000000000 20.7124999999999986   T   T   T
 15.7750000000000021  1.5549999999999999 16.4750000000000014   T   T   T
 14.2200000000000024  1.5549999999999999 12.2374999999999989   F   F   F
 15.7750000000000021  0.0000000000000000  7.9999999999999991   F   F   F
 14.2200000000000024  0.0000000000000000 13.0002499999999976   F   F   F
 15.7750000000000021  1.5549999999999999 17.2377499999999984   T   T   T
 14.2200000000000024  1.5549999999999999 21.4752499999999991   T   T   T
 15.7750000000000021  0.0000000000000000  8.7627499999999987   F   F   F
 14.2200000000000024  0.0000000000000000 18.1530500000000004   T   T   T
 15.7750000000000021  1.5549999999999999 13.9155499999999996   F   F   F
 14.2200000000000024  1.5549999999999999  9.6780499999999989   F   F   F
 15.7750000000000021  0.0000000000000000 22.3905499999999975   T   T   T
 14.2200000000000024  3.1099999999999999 10.4407999999999994   F   F   F
 15.7750000000000021  4.6650000000000000 14.6783000000000001   F   F   F
 14.2200000000000024  4.6650000000000000 18.9157999999999973   T   T   T
 15.7750000000000021  3.1099999999999999 23.1532999999999980   T   T   T
 14.2200000000000024  3.1099999999999999 20.7124999999999986   T   T   T
 15.7750000000000021  4.6650000000000000 16.4750000000000014   T   T   T
 14.2200000000000024  4.6650000000000000 12.2374999999999989   F   F   F
 15.7750000000000021  3.1099999999999999  7.9999999999999991   F   F   F
 14.2200000000000024  3.1099999999999999 13.0002499999999976   F   F   F
 15.7750000000000021  4.6650000000000000 17.2377499999999984   T   T   T
 14.2200000000000024  4.6650000000000000 21.4752499999999991   T   T   T
 15.7750000000000021  3.1099999999999999  8.7627499999999987   F   F   F
 14.2200000000000024  3.1099999999999999 18.1530500000000004   T   T   T
 15.7750000000000021  4.6650000000000000 13.9155499999999996   F   F   F
 14.2200000000000024  4.6650000000000000  9.6780499999999989   F   F   F
 15.7750000000000021  3.1099999999999999 22.3905499999999975   T   T   T
 14.2200000000000024  6.2199999999999998 10.4407999999999994   F   F   F
 15.7750000000000021  7.7749999999999995 14.6783000000000001   F   F   F
 14.2200000000000024  7.7749999999999995 18.9157999999999973   T   T   T
 15.7750000000000021  6.2199999999999998 23.1532999999999980   T   T   T
 14.2200000000000024  6.2199999999999998 20.7124999999999986   T   T   T
 15.7750000000000021  7.7749999999999995 16.4750000000000014   T   T   T
 14.2200000000000024  7.7749999999999995 12.2374999999999989   F   F   F
 15.7750000000000021  6.2199999999999998  7.9999999999999991   F   F   F
 14.2200000000000024  6.2199999999999998 13.0002499999999976   F   F   F
 15.7750000000000021  7.7749999999999995 17.2377499999999984   T   T   T
 14.2200000000000024  7.7749999999999995 21.4752499999999991   T   T   T
 15.7750000000000021  6.2199999999999998  8.7627499999999987   F   F   F
 14.2200000000000024  6.2199999999999998 18.1530500000000004   T   T   T
 15.7750000000000021  7.7749999999999995 13.9155499999999996   F   F   F
 14.2200000000000024  7.7749999999999995  9.6780499999999989   F   F   F
 15.7750000000000021  6.2199999999999998 22.3905499999999975   T   T   T
 17.3300000000000018  0.0000000000000000 10.4407999999999994   F   F   F
 18.8850000000000016  1.5549999999999999 14.6783000000000001   F   F   F
 17.3300000000000018  1.5549999999999999 18.9157999999999973   T   T   T
 18.8850000000000016  0.0000000000000000 23.1532999999999980   T   T   T
 17.3300000000000018  0.0000000000000000 20.7124999999999986   T   T   T
 18.8850000000000016  1.5549999999999999 16.4750000000000014   T   T   T
 17.3300000000000018  1.5549999999999999 12.2374999999999989   F   F   F
 18.8850000000000016  0.0000000000000000  7.9999999999999991   F   F   F
 17.3300000000000018  0.0000000000000000 13.0002499999999976   F   F   F
 18.8850000000000016  1.5549999999999999 17.2377499999999984   T   T   T
 17.3300000000000018  1.5549999999999999 21.4752499999999991   T   T   T
 18.8850000000000016  0.0000000000000000  8.7627499999999987   F   F   F
 17.3300000000000018  0.0000000000000000 18.1530500000000004   T   T   T
 18.8850000000000016  1.5549999999999999 13.9155499999999996   F   F   F
 17.3300000000000018  1.5549999999999999  9.6780499999999989   F   F   F
 18.8850000000000016  0.0000000000000000 22.3905499999999975   T   T   T
 17.3300000000000018  3.1099999999999999 10.4407999999999994   F   F   F
 18.8850000000000016  4.6650000000000000 14.6783000000000001   F   F   F
 17.3300000000000018  4.6650000000000000 18.9157999999999973   T   T   T
 18.8850000000000016  3.1099999999999999 23.1532999999999980   T   T   T
 17.3300000000000018  3.1099999999999999 20.7124999999999986   T   T   T
 18.8850000000000016  4.6650000000000000 16.4750000000000014   T   T   T
 17.3300000000000018  4.6650000000000000 12.2374999999999989   F   F   F
 18.8850000000000016  3.1099999999999999  7.9999999999999991   F   F   F
 17.3300000000000018  3.1099999999999999 13.0002499999999976   F   F   F
 18.8850000000000016  4.6650000000000000 17.2377499999999984   T   T   T
 17.3300000000000018  4.6650000000000000 21.4752499999999991   T   T   T
 18.8850000000000016  3.1099999999999999  8.7627499999999987   F   F   F
 17.3300000000000018  3.1099999999999999 18.1530500000000004   T   T   T
 18.8850000000000016  4.6650000000000000 13.9155499999999996   F   F   F
 17.3300000000000018  4.6650000000000000  9.6780499999999989   F   F   F
 18.8850000000000016  3.1099999999999999 22.3905499999999975   T   T   T
 17.3300000000000018  6.2199999999999998 10.4407999999999994   F   F   F
 18.8850000000000016  7.7749999999999995 14.6783000000000001   F   F   F
 17.3300000000000018  7.7749999999999995 18.9157999999999973   T   T   T
 18.8850000000000016  6.2199999999999998 23.1532999999999980   T   T   T
 17.3300000000000018  6.2199999999999998 20.7124999999999986   T   T   T
 18.8850000000000016  7.7749999999999995 16.4750000000000014   T   T   T
 17.3300000000000018  7.7749999999999995 12.2374999999999989   F   F   F
 18.8850000000000016  6.2199999999999998  7.9999999999999991   F   F   F
 17.3300000000000018  6.2199999999999998 13.0002499999999976   F   F   F
 18.8850000000000016  7.7749999999999995 17.2377499999999984   T   T   T
 17.3300000000000018  7.7749999999999995 21.4752499999999991   T   T   T
 18.8850000000000016  6.2199999999999998  8.7627499999999987   F   F   F
 17.3300000000000018  6.2199999999999998 18.1530500000000004   T   T   T
 18.8850000000000016  7.7749999999999995 13.9155499999999996   F   F   F
 17.3300000000000018  7.7749999999999995  9.6780499999999989   F   F   F
 18.8850000000000016  6.2199999999999998 22.3905499999999975   T   T   T
 20.4400000000000013  0.0000000000000000 10.4407999999999994   F   F   F
 21.9950000000000010  1.5549999999999999 14.6783000000000001   F   F   F
 20.4400000000000013  1.5549999999999999 18.9157999999999973   T   T   T
 21.9950000000000010  0.0000000000000000 23.1532999999999980   T   T   T
 20.4400000000000013  0.0000000000000000 20.7124999999999986   T   T   T
 21.9950000000000010  1.5549999999999999 16.4750000000000014   T   T   T
 20.4400000000000013  1.5549999999999999 12.2374999999999989   F   F   F
 21.9950000000000010  0.0000000000000000  7.9999999999999991   F   F   F
 20.4400000000000013  0.0000000000000000 13.0002499999999976   F   F   F
 21.9950000000000010  1.5549999999999999 17.2377499999999984   T   T   T
 20.4400000000000013  1.5549999999999999 21.4752499999999991   T   T   T
 21.9950000000000010  0.0000000000000000  8.7627499999999987   F   F   F
 20.4400000000000013  0.0000000000000000 18.1530500000000004   T   T   T
 21.9950000000000010  1.5549999999999999 13.9155499999999996   F   F   F
 20.4400000000000013  1.5549999999999999  9.6780499999999989   F   F   F
 21.9950000000000010  0.0000000000000000 22.3905499999999975   T   T   T
 20.4400000000000013  3.1099999999999999 10.4407999999999994   F   F   F
 21.9950000000000010  4.6650000000000000 14.6783000000000001   F   F   F
 20.4400000000000013  4.6650000000000000 18.9157999999999973   T   T   T
 21.9950000000000010  3.1099999999999999 23.1532999999999980   T   T   T
 20.4400000000000013  3.1099999999999999 20.7124999999999986   T   T   T
 21.9950000000000010  4.6650000000000000 16.4750000000000014   T   T   T
 20.4400000000000013  4.6650000000000000 12.2374999999999989   F   F   F
 21.9950000000000010  3.1099999999999999  7.9999999999999991   F   F   F
 20.4400000000000013  3.1099999999999999 13.0002499999999976   F   F   F
 21.9950000000000010  4.6650000000000000 17.2377499999999984   T   T   T
 20.4400000000000013  4.6650000000000000 21.4752499999999991   T   T   T
 21.9950000000000010  3.1099999999999999  8.7627499999999987   F   F   F
 20.4400000000000013  3.1099999999999999 18.1530500000000004   T   T   T
 21.9950000000000010  4.6650000000000000 13.9155499999999996   F   F   F
 20.4400000000000013  4.6650000000000000  9.6780499999999989   F   F   F
 21.9950000000000010  3.1099999999999999 22.3905499999999975   T   T   T
 20.4400000000000013  6.2199999999999998 10.4407999999999994   F   F   F
 21.9950000000000010  7.7749999999999995 14.6783000000000001   F   F   F
 20.4400000000000013  7.7749999999999995 18.9157999999999973   T   T   T
 21.9950000000000010  6.2199999999999998 23.1532999999999980   T   T   T
 20.4400000000000013  6.2199999999999998 20.7124999999999986   T   T   T
 21.9950000000000010  7.7749999999999995 16.4750000000000014   T   T   T
 20.4400000000000013  7.7749999999999995 12.2374999999999989   F   F   F
 21.9950000000000010  6.2199999999999998  7.9999999999999991   F   F   F
 20.4400000000000013  6.2199999999999998 13.0002499999999976   F   F   F
 21.9950000000000010  7.7749999999999995 17.2377499999999984   T   T   T
 20.4400000000000013  7.7749999999999995 21.4752499999999991   T   T   T
 21.9950000000000010  6.2199999999999998  8.7627499999999987   F   F   F
 20.4400000000000013  6.2199999999999998 18.1530500000000004   T   T   T
 21.9950000000000010  7.7749999999999995 13.9155499999999996   F   F   F
 20.4400000000000013  7.7749999999999995  9.6780499999999989   F   F   F
 21.9950000000000010  6.2199999999999998 22.3905499999999975   T   T   T
 23.5500000000000007  0.0000000000000000 10.4407999999999994   F   F   F
 25.1050000000000040  1.5549999999999999 14.6783000000000001   F   F   F
 23.5500000000000007  1.5549999999999999 18.9157999999999973   T   T   T
 25.1050000000000040  0.0000000000000000 23.1532999999999980   T   T   T
 23.5500000000000007  0.0000000000000000 20.7124999999999986   T   T   T
 25.1050000000000040  1.5549999999999999 16.4750000000000014   T   T   T
 23.5500000000000007  1.5549999999999999 12.2374999999999989   F   F   F
 25.1050000000000040  0.0000000000000000  7.9999999999999991   F   F   F
 23.5500000000000007  0.0000000000000000 13.0002499999999976   F   F   F
 25.1050000000000040  1.5549999999999999 17.2377499999999984   T   T   T
 23.5500000000000007  1.5549999999999999 21.4752499999999991   T   T   T
 25.1050000000000040  0.0000000000000000  8.7627499999999987   F   F   F
 23.5500000000000007  0.0000000000000000 18.1530500000000004   T   T   T
 25.1050000000000040  1.5549999999999999 13.9155499999999996   F   F   F
 23.5500000000000007  1.5549999999999999  9.6780499999999989   F   F   F
 25.1050000000000040  0.0000000000000000 22.3905499999999975   T   T   T
 23.5500000000000007  3.1099999999999999 10.4407999999999994   F   F   F
 25.1050000000000040  4.6650000000000000 14.6783000000000001   F   F   F
 23.5500000000000007  4.6650000000000000 18.9157999999999973   T   T   T
 25.1050000000000040  3.1099999999999999 23.1532999999999980   T   T   T
 23.5500000000000007  3.1099999999999999 20.7124999999999986   T   T   T
 25.1050000000000040  4.6650000000000000 16.4750000000000014   T   T   T
 23.5500000000000007  4.6650000000000000 12.2374999999999989   F   F   F
 25.1050000000000040  3.1099999999999999  7.9999999999999991   F   F   F
 23.5500000000000007  3.1099999999999999 13.0002499999999976   F   F   F
 25.1050000000000040  4.6650000000000000 17.2377499999999984   T   T   T
 23.5500000000000007  4.6650000000000000 21.4752499999999991   T   T   T
 25.1050000000000040  3.1099999999999999  8.7627499999999987   F   F   F
 23.5500000000000007  3.1099999999999999 18.1530500000000004   T   T   T
 25.1050000000000040  4.6650000000000000 13.9155499999999996   F   F   F
 23.5500000000000007  4.6650000000000000  9.6780499999999989   F   F   F
 25.1050000000000040  3.1099999999999999 22.3905499999999975   T   T   T
 23.5500000000000007  6.2199999999999998 10.4407999999999994   F   F   F
 25.1050000000000040  7.7749999999999995 14.6783000000000001   F   F   F
 23.5500000000000007  7.7749999999999995 18.9157999999999973   T   T   T
 25.1050000000000040  6.2199999999999998 23.1532999999999980   T   T   T
 23.5500000000000007  6.2199999999999998 20.7124999999999986   T   T   T
 25.1050000000000040  7.7749999999999995 16.4750000000000014   T   T   T
 23.5500000000000007  7.7749999999999995 12.2374999999999989   F   F   F
 25.1050000000000040  6.2199999999999998  7.9999999999999991   F   F   F
 23.5500000000000007  6.2199999999999998 13.0002499999999976   F   F   F
 25.1050000000000040  7.7749999999999995 17.2377499999999984   T   T   T
 23.5500000000000007  7.7749999999999995 21.4752499999999991   T   T   T
 25.1050000000000040  6.2199999999999998  8.7627499999999987   F   F   F
 23.5500000000000007  6.2199999999999998 18.1530500000000004   T   T   T
 25.1050000000000040  7.7749999999999995 13.9155499999999996   F   F   F
 23.5500000000000007  7.7749999999999995  9.6780499999999989   F   F   F
 25.1050000000000040  6.2199999999999998 22.3905499999999975   T   T   T
 26.6600000000000037  0.0000000000000000 10.4407999999999994   F   F   F
 28.2150000000000034  1.5549999999999999 14.6783000000000001   F   F   F
 26.6600000000000037  1.5549999999999999 18.9157999999999973   T   T   T
 28.2150000000000034  0.0000000000000000 23.1532999999999980   T   T   T
 26.6600000000000037  0.0000000000000000 20.7124999999999986   T   T   T
 28.2150000000000034  1.5549999999999999 16.4750000000000014   T   T   T
 26.6600000000000037  1.5549999999999999 12.2374999999999989   F   F   F
 28.2150000000000034  0.0000000000000000  7.9999999999999991   F   F   F
 26.6600000000000037  0.0000000000000000 13.0002499999999976   F   F   F
 28.2150000000000034  1.5549999999999999 17.2377499999999984   T   T   T
 26.6600000000000037  1.5549999999999999 21.4752499999999991   T   T   T
 28.2150000000000034  0.0000000000000000  8.7627499999999987   F   F   F
 26.6600000000000037  0.0000000000000000 18.1530500000000004   T   T   T
 28.2150000000000034  1.5549999999999999 13.9155499999999996   F   F   F
 26.6600000000000037  1.5549999999999999  9.6780499999999989   F   F   F
 28.2150000000000034  0.0000000000000000 22.3905499999999975   T   T   T
 26.6600000000000037  3.1099999999999999 10.4407999999999994   F   F   F
 28.2150000000000034  4.6650000000000000 14.6783000000000001   F   F   F
 26.6600000000000037  4.6650000000000000 18.9157999999999973   T   T   T
 28.2150000000000034  3.1099999999999999 23.1532999999999980   T   T   T
 26.6600000000000037  3.1099999999999999 20.7124999999999986   T   T   T
 28.2150000000000034  4.6650000000000000 16.4750000000000014   T   T   T
 26.6600000000000037  4.6650000000000000 12.2374999999999989   F   F   F
 28.2150000000000034  3.1099999999999999  7.9999999999999991   F   F   F
 26.6600000000000037  3.1099999999999999 13.0002499999999976   F   F   F
 28.2150000000000034  4.6650000000000000 17.2377499999999984   T   T   T
 26.6600000000000037  4.6650000000000000 21.4752499999999991   T   T   T
 28.2150000000000034  3.1099999999999999  8.7627499999999987   F   F   F
 26.6600000000000037  3.1099999999999999 18.1530500000000004   T   T   T
 28.2150000000000034  4.6650000000000000 13.9155499999999996   F   F   F
 26.6600000000000037  4.6650000000000000  9.6780499999999989   F   F   F
 28.2150000000000034  3.1099999999999999 22.3905499999999975   T   T   T
 26.6600000000000037  6.2199999999999998 10.4407999999999994   F   F   F
 28.2150000000000034  7.7749999999999995 14.6783000000000001   F   F   F
 26.6600000000000037  7.7749999999999995 18.9157999999999973   T   T   T
 28.2150000000000034  6.2199999999999998 23.1532999999999980   T   T   T
 26.6600000000000037  6.2199999999999998 20.7124999999999986   T   T   T
 28.2150000000000034  7.7749999999999995 16.4750000000000014   T   T   T
 26.6600000000000037  7.7749999999999995 12.2374999999999989   F   F   F
 28.2150000000000034  6.2199999999999998  7.9999999999999991   F   F   F
 26.6600000000000037  6.2199999999999998 13.0002499999999976   F   F   F
 28.2150000000000034  7.7749999999999995 17.2377499999999984   T   T   T
 26.6600000000000037  7.7749999999999995 21.4752499999999991   T   T   T
 28.2150000000000034  6.2199999999999998  8.7627499999999987   F   F   F
 26.6600000000000037  6.2199999999999998 18.1530500000000004   T   T   T
 28.2150000000000034  7.7749999999999995 13.9155499999999996   F   F   F
 26.6600000000000037  7.7749999999999995  9.6780499999999989   F   F   F
 28.2150000000000034  6.2199999999999998 22.3905499999999975   T   T   T
 29.7700000000000031  0.0000000000000000 10.4407999999999994   F   F   F
 31.3250000000000028  1.5549999999999999 14.6783000000000001   F   F   F
 29.7700000000000031  1.5549999999999999 18.9157999999999973   T   T   T
 31.3250000000000028  0.0000000000000000 23.1532999999999980   T   T   T
 29.7700000000000031  0.0000000000000000 20.7124999999999986   T   T   T
 31.3250000000000028  1.5549999999999999 16.4750000000000014   T   T   T
 29.7700000000000031  1.5549999999999999 12.2374999999999989   F   F   F
 31.3250000000000028  0.0000000000000000  7.9999999999999991   F   F   F
 29.7700000000000031  0.0000000000000000 13.0002499999999976   F   F   F
 31.3250000000000028  1.5549999999999999 17.2377499999999984   T   T   T
 29.7700000000000031  1.5549999999999999 21.4752499999999991   T   T   T
 31.3250000000000028  0.0000000000000000  8.7627499999999987   F   F   F
 29.7700000000000031  0.0000000000000000 18.1530500000000004   T   T   T
 31.3250000000000028  1.5549999999999999 13.9155499999999996   F   F   F
 29.7700000000000031  1.5549999999999999  9.6780499999999989   F   F   F
 31.3250000000000028  0.0000000000000000 22.3905499999999975   T   T   T
 29.7700000000000031  3.1099999999999999 10.4407999999999994   F   F   F
 31.3250000000000028  4.6650000000000000 14.6783000000000001   F   F   F
 29.7700000000000031  4.6650000000000000 18.9157999999999973   T   T   T
 31.3250000000000028  3.1099999999999999 23.1532999999999980   T   T   T
 29.7700000000000031  3.1099999999999999 20.7124999999999986   T   T   T
 31.3250000000000028  4.6650000000000000 16.4750000000000014   T   T   T
 29.7700000000000031  4.6650000000000000 12.2374999999999989   F   F   F
 31.3250000000000028  3.1099999999999999  7.9999999999999991   F   F   F
 29.7700000000000031  3.1099999999999999 13.0002499999999976   F   F   F
 31.3250000000000028  4.6650000000000000 17.2377499999999984   T   T   T
 29.7700000000000031  4.6650000000000000 21.4752499999999991   T   T   T
 31.3250000000000028  3.1099999999999999  8.7627499999999987   F   F   F
 29.7700000000000031  3.1099999999999999 18.1530500000000004   T   T   T
 31.3250000000000028  4.6650000000000000 13.9155499999999996   F   F   F
 29.7700000000000031  4.6650000000000000  9.6780499999999989   F   F   F
 31.3250000000000028  3.1099999999999999 22.3905499999999975   T   T   T
 29.7700000000000031  6.2199999999999998 10.4407999999999994   F   F   F
 31.3250000000000028  7.7749999999999995 14.6783000000000001   F   F   F
 29.7700000000000031  7.7749999999999995 18.9157999999999973   T   T   T
 31.3250000000000028  6.2199999999999998 23.1532999999999980   T   T   T
 29.7700000000000031  6.2199999999999998 20.7124999999999986   T   T   T
 31.3250000000000028  7.7749999999999995 16.4750000000000014   T   T   T
 29.7700000000000031  7.7749999999999995 12.2374999999999989   F   F   F
 31.3250000000000028  6.2199999999999998  7.9999999999999991   F   F   F
 29.7700000000000031  6.2199999999999998 13.0002499999999976   F   F   F
 31.3250000000000028  7.7749999999999995 17.2377499999999984   T   T   T
 29.7700000000000031  7.7749999999999995 21.4752499999999991   T   T   T
 31.3250000000000028  6.2199999999999998  8.7627499999999987   F   F   F
 29.7700000000000031  6.2199999999999998 18.1530500000000004   T   T   T
 31.3250000000000028  7.7749999999999995 13.9155499999999996   F   F   F
 29.7700000000000031  7.7749999999999995  9.6780499999999989   F   F   F
 31.3250000000000028  6.2199999999999998 22.3905499999999975   T   T   T
 32.8800000000000026  0.0000000000000000 10.4407999999999994   F   F   F
 34.4350000000000023  1.5549999999999999 14.6783000000000001   F   F   F
 32.8800000000000026  1.5549999999999999 18.9157999999999973   T   T   T
 34.4350000000000023  0.0000000000000000 23.1532999999999980   T   T   T
 32.8800000000000026  0.0000000000000000 20.7124999999999986   T   T   T
 34.4350000000000023  1.5549999999999999 16.4750000000000014   T   T   T
 32.8800000000000026  1.5549999999999999 12.2374999999999989   F   F   F
 34.4350000000000023  0.0000000000000000  7.9999999999999991   F   F   F
 32.8800000000000026  0.0000000000000000 13.0002499999999976   F   F   F
 34.4350000000000023  1.5549999999999999 17.2377499999999984   T   T   T
 32.8800000000000026  1.5549999999999999 21.4752499999999991   T   T   T
 34.4350000000000023  0.0000000000000000  8.7627499999999987   F   F   F
 32.8800000000000026  0.0000000000000000 18.1530500000000004   T   T   T
 34.4350000000000023  1.5549999999999999 13.9155499999999996   F   F   F