Mo Se Mo Se Mo Se Mo Se Mo Se Mo Se Mo Se Mo Se Mo Se Mo Se Mo Se Mo Se Mo Se Mo Se Mo Se Mo Se Mo Se Mo Se Mo Se Mo Se Mo Se Mo Se Mo Se Mo Se Mo Se Mo Se Mo Se Mo Se Mo Se Mo Se Mo Se Mo Se Mo Se Mo Se Mo Se Mo Se Mo Se Mo Se Mo Se Mo Se Mo Se Mo Se Mo Se Mo Se Mo Se Mo Se Mo Se Mo Se Mo Se Mo Se Mo Se Mo Se Mo Se Mo Se Mo Se Mo Se Mo Se Mo Se Mo Se Mo Se Mo Se Mo Se Mo Se Mo Se
 1.0000000000000000
    22.7868604243761510    0.0000000000000000    0.0000000000000000
     0.0000000000000000   51.9799999999999969    0.0000000000000000
     0.0000000000000000    0.0000000000000000   24.9335000000000022
 Mo  Se  Mo  Se  Mo  Se  Mo  Se  Mo  Se  Mo  Se  Mo  Se  Mo  Se  Mo  Se  Mo  Se  Mo  Se  Mo  Se  Mo  Se  Mo  Se  Mo  Se  Mo  Se  Mo  Se  Mo  Se  Mo  Se  Mo  Se  Mo  Se  Mo  Se  Mo  Se  Mo  Se  Mo  Se  Mo  Se  Mo  Se  Mo  Se  Mo  Se  Mo  Se  Mo  Se  Mo  Se  Mo  Se  Mo  Se  Mo  Se  Mo  Se  Mo  Se  Mo  Se  Mo  Se  Mo  Se  Mo  Se  Mo  Se  Mo  Se  Mo  Se  Mo  Se  Mo  Se  Mo  Se  Mo  Se  Mo  Se  Mo  Se  Mo  Se  Mo  Se  Mo  Se  Mo  Se  Mo  Se  Mo  Se  Mo  Se  Mo  Se  Mo  Se  Mo  Se  Mo  Se  Mo  Se  Mo  Se  Mo  Se 
   1   2   1   2   1   2   1   2   1   2   1   2   1   2   1   2   1   2   1   2   1   2   1   2   1   2   1   2   1   2   1   2   1   2   1   2   1   2   1   2   1   2   1   2   1   2   1   2   1   2   1   2   1   2   1   2   1   2   1   2   1   2   1   2   1   2   1   2   1   2   1   2   1   2   1   2   1   2   1   2   1   2   1   2   1   2   1   2   1   2   1   2   1   2   1   2   1   2   1   2   1   2   1   2   1   2   1   2   1   2   1   2   1   2   1   2   1   2   1   2   1   2   1   2   1   2   1   2
Selective dynamics
Cartesian
  0.0000000000000000  6.4975000000000014 10.0000000000000000   F   F   F
  1.8989050353646797  4.9381000000000004 10.0000000000000000   F   F   F
  3.7978100707293589  8.0569000000000006 10.0000000000000000   F   F   F
  2.8483575530470189  6.4975000000000014 11.6445000000000007   F   F   F
  4.7472625884116981  4.9381000000000004 11.6445000000000007   F   F   F
  0.9494525176823401  8.0569000000000006 11.6445000000000007   F   F   F
  0.0000000000000000  6.4975000000000014 13.2890000000000015   T   T   T
  1.8989050353646801  4.9381000000000004 13.2890000000000015   T   T   T
  3.7978100707293576  8.0569000000000006 13.2890000000000015   T   T   T
  2.8483575530470189  6.4975000000000014 14.9335000000000022   T   T   T
  4.7472625884116981  4.9381000000000004 14.9335000000000022   T   T   T
  0.9494525176823387  8.0569000000000006 14.9335000000000022   T   T   T
  0.0000000000000000 19.4924999999999997 10.0000000000000000   F   F   F
  1.8989050353646797 17.9330999999999996 10.0000000000000000   F   F   F
  3.7978100707293589 21.0518999999999998 10.0000000000000000   F   F   F
  2.8483575530470189 19.4924999999999997 11.6445000000000007   F   F   F
  4.7472625884116981 17.9330999999999996 11.6445000000000007   F   F   F
  0.9494525176823401 21.0518999999999998 11.6445000000000007   F   F   F
  0.0000000000000000 19.4924999999999997 13.2890000000000015   T   T   T
  1.8989050353646801 17.9330999999999996 13.2890000000000015   T   T   T
  3.7978100707293576 21.0518999999999998 13.2890000000000015   T   T   T
  2.8483575530470189 19.4924999999999997 14.9335000000000022   T   T   T
  4.7472625884116981 17.9330999999999996 14.9335000000000022   T   T   T
  0.9494525176823387 21.0518999999999998 14.9335000000000022   T   T   T
  0.0000000000000000 32.4874999999999972 10.0000000000000000   F   F   F
  1.8989050353646797 30.9281000000000006 10.0000000000000000   F   F   F
  3.7978100707293589 34.0469000000000008 10.0000000000000000   F   F   F
  2.8483575530470189 32.4874999999999972 11.6445000000000007   F   F   F
  4.7472625884116981 30.9281000000000006 11.6445000000000007   F   F   F
  0.9494525176823401 34.0469000000000008 11.6445000000000007   F   F   F
  0.0000000000000000 32.4874999999999972 13.2890000000000015   T   T   T
  1.8989050353646801 30.9281000000000006 13.2890000000000015   T   T   T
  3.7978100707293576 34.0469000000000008 13.2890000000000015   T   T   T
  2.8483575530470189 32.4874999999999972 14.9335000000000022   T   T   T
  4.7472625884116981 30.9281000000000006 14.9335000000000022   T   T   T
  0.9494525176823387 34.0469000000000008 14.9335000000000022   T   T   T
  0.0000000000000000 45.4825000000000017 10.0000000000000000   F   F   F
  1.8989050353646797 43.9230999999999980 10.0000000000000000   F   F   F
  3.7978100707293589 47.0418999999999983 10.0000000000000000   F   F   F
  2.8483575530470189 45.4825000000000017 11.6445000000000007   F   F   F
  4.7472625884116981 43.9230999999999980 11.6445000000000007   F   F   F
  0.9494525176823401 47.0418999999999983 11.6445000000000007   F   F   F
  0.0000000000000000 45.4825000000000017 13.2890000000000015   T   T   T
  1.8989050353646801 43.9230999999999980 13.2890000000000015   T   T   T
  3.7978100707293576 47.0418999999999983 13.2890000000000015   T   T   T
  2.8483575530470189 45.4825000000000017 14.9335000000000022   T   T   T
  4.7472625884116981 43.9230999999999980 14.9335000000000022   T   T   T
  0.9494525176823387 47.0418999999999983 14.9335000000000022   T   T   T
  5.6967151060940378  6.4975000000000014 10.0000000000000000   F   F   F
  7.5956201414587170  4.9381000000000004 10.0000000000000000   F   F   F
  9.4945251768233963  8.0569000000000006 10.0000000000000000   F   F   F
  8.5450726591410557  6.4975000000000014 11.6445000000000007   F   F   F
 10.4439776945057368  4.9381000000000004 11.6445000000000007   F   F   F
  6.6461676237763783  8.0569000000000006 11.6445000000000007   F   F   F
  5.6967151060940378  6.4975000000000014 13.2890000000000015   T   T   T
  7.5956201414587179  4.9381000000000004 13.2890000000000015   T   T   T
  9.4945251768233945  8.0569000000000006 13.2890000000000015   T   T   T
  8.5450726591410557  6.4975000000000014 14.9335000000000022   T   T   T
 10.4439776945057368  4.9381000000000004 14.9335000000000022   T   T   T
  6.6461676237763765  8.0569000000000006 14.9335000000000022   T   T   T
  5.6967151060940378 19.4924999999999997 10.0000000000000000   F   F   F
  7.5956201414587170 17.9330999999999996 10.0000000000000000   F   F   F
  9.4945251768233963 21.0518999999999998 10.0000000000000000   F   F   F
  8.5450726591410557 19.4924999999999997 11.6445000000000007   F   F   F
 10.4439776945057368 17.9330999999999996 11.6445000000000007   F   F   F
  6.6461676237763783 21.0518999999999998 11.6445000000000007   F   F   F
  5.6967151060940378 19.4924999999999997 13.2890000000000015   T   T   T
  7.5956201414587179 17.9330999999999996 13.2890000000000015   T   T   T
  9.4945251768233945 21.0518999999999998 13.2890000000000015   T   T   T
  8.5450726591410557 19.4924999999999997 14.9335000000000022   T   T   T
 10.4439776945057368 17.9330999999999996 14.9335000000000022   T   T   T
  6.6461676237763765 21.0518999999999998 14.9335000000000022   T   T   T
  5.6967151060940378 32.4874999999999972 10.0000000000000000   F   F   F
  7.5956201414587170 30.9281000000000006 10.0000000000000000   F   F   F
  9.4945251768233963 34.0469000000000008 10.0000000000000000   F   F   F
  8.5450726591410557 32.4874999999999972 11.6445000000000007   F   F   F
 10.4439776945057368 30.9281000000000006 11.6445000000000007   F   F   F
  6.6461676237763783 34.0469000000000008 11.6445000000000007   F   F   F
  5.6967151060940378 32.4874999999999972 13.2890000000000015   T   T   T
  7.5956201414587179 30.9281000000000006 13.2890000000000015   T   T   T
  9.4945251768233945 34.0469000000000008 13.2890000000000015   T   T   T
  8.5450726591410557 32.4874999999999972 14.9335000000000022   T   T   T
 10.4439776945057368 30.9281000000000006 14.9335000000000022   T   T   T
  6.6461676237763765 34.0469000000000008 14.9335000000000022   T   T   T
  5.6967151060940378 45.4825000000000017 10.0000000000000000   F   F   F
  7.5956201414587170 43.9230999999999980 10.0000000000000000   F   F   F
  9.4945251768233963 47.0418999999999983 10.0000000000000000   F   F   F
  8.5450726591410557 45.4825000000000017 11.6445000000000007   F   F   F
 10.4439776945057368 43.9230999999999980 11.6445000000000007   F   F   F
  6.6461676237763783 47.0418999999999983 11.6445000000000007   F   F   F
  5.6967151060940378 45.4825000000000017 13.2890000000000015   T   T   T
  7.5956201414587179 43.9230999999999980 13.2890000000000015   T   T   T
  9.4945251768233945 47.0418999999999983 13.2890000000000015   T   T   T
  8.5450726591410557 45.4825000000000017 14.9335000000000022   T   T   T
 10.4439776945057368 43.9230999999999980 14.9335000000000022   T   T   T
  6.6461676237763765 47.0418999999999983 14.9335000000000022   T   T   T
 11.3934302121880755  6.4975000000000014 10.0000000000000000   F   F   F
 13.2923352475527548  4.9381000000000004 10.0000000000000000   F   F   F
 15.1912402829174340  8.0569000000000006 10.0000000000000000   F   F   F
 14.2417877652350953  6.4975000000000014 11.6445000000000007   F   F   F
 16.1406928005997727  4.9381000000000004 11.6445000000000007   F   F   F
 12.3428827298704160  8.0569000000000006 11.6445000000000007   F   F   F
 11.3934302121880755  6.4975000000000014 13.2890000000000015   T   T   T
 13.2923352475527565  4.9381000000000004 13.2890000000000015   T   T   T
 15.1912402829174340  8.0569000000000006 13.2890000000000015   T   T   T
 14.2417877652350953  6.4975000000000014 14.9335000000000022   T   T   T
 16.1406928005997727  4.9381000000000004 14.9335000000000022   T   T   T
 12.3428827298704142  8.0569000000000006 14.9335000000000022   T   T   T
 11.3934302121880755 19.4924999999999997 10.0000000000000000   F   F   F
 13.2923352475527548 17.9330999999999996 10.0000000000000000   F   F   F
 15.1912402829174340 21.0518999999999998 10.0000000000000000   F   F   F
 14.2417877652350953 19.4924999999999997 11.6445000000000007   F   F   F
 16.1406928005997727 17.9330999999999996 11.6445000000000007   F   F   F
 12.3428827298704160 21.0518999999999998 11.6445000000000007   F   F   F
 11.3934302121880755 19.4924999999999997 13.2890000000000015   T   T   T
 13.2923352475527565 17.9330999999999996 13.2890000000000015   T   T   T
 15.1912402829174340 21.0518999999999998 13.2890000000000015   T   T   T
 14.2417877652350953 19.4924999999999997 14.9335000000000022   T   T   T
 16.1406928005997727 17.9330999999999996 14.9335000000000022   T   T   T
 12.3428827298704142 21.0518999999999998 14.9335000000000022   T   T   T
 11.3934302121880755 32.4874999999999972 10.0000000000000000   F   F   F
 13.2923352475527548 30.9281000000000006 10.0000000000000000   F   F   F
 15.1912402829174340 34.0469000000000008 10.0000000000000000   F   F   F
 14.2417877652350953 32.4874999999999972 11.6445000000000007   F   F   F
 16.1406928005997727 30.9281000000000006 11.6445000000000007   F   F   F
 12.3428827298704160 34.0469000000000008 11.6445000000000007   F   F   F
 11.3934302121880755 32.4874999999999972 13.2890000000000015   T   T   T
 13.2923352475527565 30.9281000000000006 13.2890000000000015   T   T   T
 15.1912402829174340 34.0469000000000008 13.2890000000000015   T   T   T
 14.2417877652350953 32.4874999999999972 14.9335000000000022   T   T   T
 16.1406928005997727 30.9281000000000006 14.9335000000000022   T   T   T
 12.3428827298704142 34.0469000000000008 14.9335000000000022   T   T   T
 11.3934302121880755 45.4825000000000017 10.0000000000000000   F   F   F
 13.2923352475527548 43.9230999999999980 10.0000000000000000   F   F   F
 15.1912402829174340 47.0418999999999983 10.0000000000000000   F   F   F
 14.2417877652350953 45.4825000000000017 11.6445000000000007   F   F   F
 16.1406928005997727 43.9230999999999980 11.6445000000000007   F   F   F
 12.3428827298704160 47.0418999999999983 11.6445000000000007   F   F   F
 11.3934302121880755 45.4825000000000017 13.2890000000000015   T   T   T
 13.2923352475527565 43.9230999999999980 13.2890000000000015   T   T   T
 15.1912402829174340 47.0418999999999983 13.2890000000000015   T   T   T
 14.2417877652350953 45.4825000000000017 14.9335000000000022   T   T   T
 16.1406928005997727 43.9230999999999980 14.9335000000000022   T   T   T
 12.3428827298704142 47.0418999999999983 14.9335000000000022   T   T   T
 17.0901453182821115  6.4975000000000014 10.0000000000000000   F   F   F
 18.9890503536467925  4.9381000000000004 10.0000000000000000   F   F   F
 20.8879553890114700  8.0569000000000006 10.0000000000000000   F   F   F
 19.9385028713291312  6.4975000000000014 11.6445000000000007   F   F   F
 21.8374079066938087  4.9381000000000004 11.6445000000000007   F   F   F
 18.0395978359644502  8.0569000000000006 11.6445000000000007   F   F   F
 17.0901453182821115  6.4975000000000014 13.2890000000000015   T   T   T
 18.9890503536467925  4.9381000000000004 13.2890000000000015   T   T   T
 20.8879553890114700  8.0569000000000006 13.2890000000000015   T   T   T
 19.9385028713291312  6.4975000000000014 14.9335000000000022   T   T   T
 21.8374079066938087  4.9381000000000004 14.9335000000000022   T   T   T
 18.0395978359644502  8.0569000000000006 14.9335000000000022   T   T   T
 17.0901453182821115 19.4924999999999997 10.0000000000000000   F   F   F
 18.9890503536467925 17.9330999999999996 10.0000000000000000   F   F   F
 20.8879553890114700 21.0518999999999998 10.0000000000000000   F   F   F
 19.9385028713291312 19.4924999999999997 11.6445000000000007   F   F   F
 21.8374079066938087 17.9330999999999996 11.6445000000000007   F   F   F
 18.0395978359644502 21.0518999999999998 11.6445000000000007   F   F   F
 17.0901453182821115 19.4924999999999997 13.2890000000000015   T   T   T
 18.9890503536467925 17.9330999999999996 13.2890000000000015   T   T   T
 20.8879553890114700 21.0518999999999998 13.2890000000000015   T   T   T
 19.9385028713291312 19.4924999999999997 14.9335000000000022   T   T   T
 21.8374079066938087 17.9330999999999996 14.9335000000000022   T   T   T
 18.0395978359644502 21.0518999999999998 14.9335000000000022   T   T   T
 17.0901453182821115 32.4874999999999972 10.0000000000000000   F   F   F
 18.9890503536467925 30.9281000000000006 10.0000000000000000   F   F   F
 20.8879553890114700 34.0469000000000008 10.0000000000000000   F   F   F
 19.9385028713291312 32.4874999999999972 11.6445000000000007   F   F   F
 21.8374079066938087 30.9281000000000006 11.6445000000000007   F   F   F
 18.0395978359644502 34.0469000000000008 11.6445000000000007   F   F   F
 17.0901453182821115 32.4874999999999972 13.2890000000000015   T   T   T
 18.9890503536467925 30.9281000000000006 13.2890000000000015   T   T   T
 20.8879553890114700 34.0469000000000008 13.2890000000000015   T   T   T
 19.9385028713291312 32.4874999999999972 14.9335000000000022   T   T   T
 21.8374079066938087 30.9281000000000006 14.9335000000000022   T   T   T
 18.0395978359644502 34.0469000000000008 14.9335000000000022   T   T   T
 17.0901453182821115 45.4825000000000017 10.0000000000000000   F   F   F
 18.9890503536467925 43.9230999999999980 10.0000000000000000   F   F   F
 20.8879553890114700 47.0418999999999983 10.0000000000000000   F   F   F
 19.9385028713291312 45.4825000000000017 11.6445000000000007   F   F   F
 21.8374079066938087 43.9230999999999980 11.6445000000000007   F   F   F
 18.0395978359644502 47.0418999999999983 11.6445000000000007   F   F   F
 17.0901453182821115 45.4825000000000017 13.2890000000000015   T   T   T
 18.9890503536467925 43.9230999999999980 13.2890000000000015   T   T   T
 20.8879553890114700 47.0418999999999983 13.2890000000000015   T   T   T
 19.9385028713291312 45.4825000000000017 14.9335000000000022   T   T   T
 21.8374079066938087 43.9230999999999980 14.9335000000000022   T   T   T
 18.0395978359644502 47.0418999999999983 14.9335000000000022   T   T   T
