Mo Se Mo Se Mo Se Mo Se Mo Se Mo Se Mo Se Mo Se Mo Se Mo Se Mo Se Mo Se Mo Se Mo Se Mo Se Mo Se
 1.0000000000000000
    11.3934302121880755    0.0000000000000000    0.0000000000000000
    -5.6967151060940378   26.1972827026010400    0.0000000000000000
     0.0000000000000000    0.0000000000000000   21.2860214462720165
 Mo  Se  Mo  Se  Mo  Se  Mo  Se  Mo  Se  Mo  Se  Mo  Se  Mo  Se  Mo  Se  Mo  Se  Mo  Se  Mo  Se  Mo  Se  Mo  Se  Mo  Se  Mo  Se 
   1   2   1   2   1   2   1   2   1   2   1   2   1   2   1   2   1   2   1   2   1   2   1   2   1   2   1   2   1   2   1   2
Selective dynamics
Cartesian
  2.8483575530470193  6.6525520023760460  8.1957785720841478   F   F   F
 -0.9494525176823380  5.1054905586341723  8.3915571441682992   F   F   F
  0.9494525176823400  8.1996134461179206  8.0000000000000000   F   F   F
 -0.0000000000000001  6.8590146558276208  9.8272666727853881   F   F   F
  1.8989050353646799  5.3119532120857453 10.0230452448695360   F   F   F
  3.7978100707293589  8.4060760995694928  9.6314881007012403   F   F   F
  2.8483575530470180  7.0654773092791929 11.4587547734866284   T   T   T
 -0.9494525176823380  5.5184158655373174 11.6545333455707762   T   T   T
  0.9494525176823384  8.6125387530210666 11.2629762014024770   T   T   T
  0.0000000000000015  7.2719399627307642 13.0902428741878651   T   T   T
  1.8989050353646804  5.7248785189888904 13.2860214462720165   T   T   T
 -1.8989050353646770  8.8190014064726387 12.8944643021037173   T   T   T
  0.0000000000000004 19.7511933536765660  8.1957785720841478   F   F   F
 -3.7978100707293567 18.2041319099346914  8.3915571441682992   F   F   F
 -1.8989050353646788 21.2982547974184406  8.0000000000000000   F   F   F
 -2.8483575530470189 19.9576560071281399  9.8272666727853881   F   F   F
 -0.9494525176823390 18.4105945633862653 10.0230452448695360   F   F   F
  0.9494525176823401 21.5047174508700110  9.6314881007012403   F   F   F
 -0.0000000000000009 20.1641186605797138 11.4587547734866284   T   T   T
 -3.7978100707293567 18.6170572168378357 11.6545333455707762   T   T   T
 -1.8989050353646806 21.7111801043215848 11.2629762014024770   T   T   T
 -2.8483575530470175 20.3705813140312841 13.0902428741878651   T   T   T
 -0.9494525176823385 18.8235198702894095 13.2860214462720165   T   T   T
 -4.7472625884116955 21.9176427577731587 12.8944643021037173   T   T   T
  8.5450726591410575  6.6525520023760460  8.1957785720841478   F   F   F
  4.7472625884116999  5.1054905586341723  8.3915571441682992   F   F   F
  6.6461676237763774  8.1996134461179206  8.0000000000000000   F   F   F
  5.6967151060940378  6.8590146558276208  9.8272666727853881   F   F   F
  7.5956201414587179  5.3119532120857453 10.0230452448695360   F   F   F
  9.4945251768233963  8.4060760995694928  9.6314881007012403   F   F   F
  8.5450726591410557  7.0654773092791929 11.4587547734866284   T   T   T
  4.7472625884116999  5.5184158655373174 11.6545333455707762   T   T   T
  6.6461676237763765  8.6125387530210666 11.2629762014024770   T   T   T
  5.6967151060940395  7.2719399627307642 13.0902428741878651   T   T   T
  7.5956201414587179  5.7248785189888904 13.2860214462720165   T   T   T
  3.7978100707293607  8.8190014064726387 12.8944643021037173   T   T   T
  5.6967151060940378 19.7511933536765660  8.1957785720841478   F   F   F
  1.8989050353646810 18.2041319099346914  8.3915571441682992   F   F   F
  3.7978100707293589 21.2982547974184406  8.0000000000000000   F   F   F
  2.8483575530470189 19.9576560071281399  9.8272666727853881   F   F   F
  4.7472625884116990 18.4105945633862653 10.0230452448695360   F   F   F
  6.6461676237763783 21.5047174508700110  9.6314881007012403   F   F   F
  5.6967151060940369 20.1641186605797138 11.4587547734866284   T   T   T
  1.8989050353646810 18.6170572168378357 11.6545333455707762   T   T   T
  3.7978100707293572 21.7111801043215848 11.2629762014024770   T   T   T
  2.8483575530470202 20.3705813140312841 13.0902428741878651   T   T   T
  4.7472625884116990 18.8235198702894095 13.2860214462720165   T   T   T
  0.9494525176823418 21.9176427577731587 12.8944643021037173   T   T   T
