Mo C  Mo C  Mo C  Mo Ag Mo C  Mo C  Mo C  Mo C  Mo C  Mo C  Mo C  Mo C  Mo C  Mo C  Mo C  Mo C  Mo C 
 1.0000000000000000
    12.0739999999999998    0.0000000000000000    0.0000000000000000
     0.0000000000000000   10.4079999999999995    0.0000000000000000
     0.0000000000000000    0.0000000000000000   33.7450000000000045
 Mo  C   Mo  C   Mo  C   Mo  Ag  Mo  C   Mo  C   Mo  C   Mo  C   Mo  C   Mo  C   Mo  C   Mo  C   Mo  C   Mo  C   Mo  C   Mo  C   Mo  C  
   4   2   4   2   4   2   1   1   2   2   4   2   4   2   4   2   4   2   4   2   4   2   4   2   4   2   4   2   4   2   4   2   4   2
Selective dynamics
Cartesian
  0.7244400000000000  0.4163200000000001  9.1829999999999998   F   F   F
  5.3125600000000004  4.7876800000000008 11.5490000000000030   F   F   F
  3.7429399999999999  2.1856799999999996  9.1829999999999998   F   F   F
  2.2940600000000000  3.0183199999999997 11.5490000000000030   F   F   F
  2.1733199999999999  1.3009999999999999  8.0000000000000000   F   F   F
  3.8636800000000000  3.9030000000000005 10.3659999999999997   F   F   F
  0.7244400000000000  0.4163200000000001 13.9150000000000027   F   F   F
  5.3125600000000004  4.7876800000000008 16.2810000000000024   F   F   F
  3.7429399999999999  2.1856799999999996 13.9150000000000027   F   F   F
  2.2940600000000000  3.0183199999999997 16.2810000000000024   F   F   F
  2.1733199999999999  1.3009999999999999 12.7320000000000029   F   F   F
  3.8636800000000000  3.9030000000000005 15.0980000000000025   F   F   F
  0.7244400000000000  0.4163200000000001 18.6470000000000020   T   T   T
  5.3125600000000004  4.7876800000000008 21.0130000000000052   T   T   T
  3.7429399999999999  2.1856799999999996 18.6470000000000020   T   T   T
  2.2940600000000000  3.0183199999999997 21.0130000000000052   T   T   T
  2.1733199999999999  1.3009999999999999 17.4640000000000022   T   T   T
  3.8636800000000000  3.9030000000000005 19.8300000000000018   T   T   T
  0.7244400000000000  0.4163200000000001 23.3790000000000049   T   T   T
  5.3125600000000004  4.7876800000000008 25.7450000000000045   T   T   T
  3.7429399999999999  2.1856799999999996 23.3790000000000049   T   T   T
  2.2940600000000000  3.0183199999999997 25.7450000000000045   T   T   T
  2.1733199999999999  1.3009999999999999 22.1960000000000051   T   T   T
  3.8636800000000000  3.9030000000000005 24.5620000000000047   T   T   T
  0.7244400000000000  5.6203199999999995  9.1829999999999998   F   F   F
  5.3125600000000004  9.9916800000000006 11.5490000000000030   F   F   F
  3.7429399999999999  7.3896799999999994  9.1829999999999998   F   F   F
  2.2940600000000000  8.2223199999999999 11.5490000000000030   F   F   F
  2.1733199999999999  6.5049999999999999  8.0000000000000000   F   F   F
  3.8636800000000000  9.1069999999999993 10.3659999999999997   F   F   F
  0.7244400000000000  5.6203199999999995 13.9150000000000027   F   F   F
  5.3125600000000004  9.9916800000000006 16.2810000000000024   F   F   F
  3.7429399999999999  7.3896799999999994 13.9150000000000027   F   F   F
  2.2940600000000000  8.2223199999999999 16.2810000000000024   F   F   F
  2.1733199999999999  6.5049999999999999 12.7320000000000029   F   F   F
  3.8636800000000000  9.1069999999999993 15.0980000000000025   F   F   F
  0.7244400000000000  5.6203199999999995 18.6470000000000020   T   T   T
  5.3125600000000004  9.9916800000000006 21.0130000000000052   T   T   T
  3.7429399999999999  7.3896799999999994 18.6470000000000020   T   T   T
  2.2940600000000000  8.2223199999999999 21.0130000000000052   T   T   T
  2.1733199999999999  6.5049999999999999 17.4640000000000022   T   T   T
  3.8636800000000000  9.1069999999999993 19.8300000000000018   T   T   T
  0.7244400000000000  5.6203199999999995 23.3790000000000049   T   T   T
  5.3125600000000004  9.9916800000000006 25.7450000000000045   T   T   T
  3.7429399999999999  7.3896799999999994 23.3790000000000049   T   T   T
  2.2940600000000000  8.2223199999999999 25.7450000000000045   T   T   T
  2.1733199999999999  6.5049999999999999 22.1960000000000051   T   T   T
  3.8636800000000000  9.1069999999999993 24.5620000000000047   T   T   T
  6.7614400000000003  0.4163200000000001  9.1829999999999998   F   F   F
 11.3495600000000003  4.7876800000000008 11.5490000000000030   F   F   F
  9.7799399999999999  2.1856799999999996  9.1829999999999998   F   F   F
  8.3310600000000008  3.0183199999999997 11.5490000000000030   F   F   F
  8.2103199999999994  1.3009999999999999  8.0000000000000000   F   F   F
  9.9006799999999995  3.9030000000000005 10.3659999999999997   F   F   F
  6.7614400000000003  0.4163200000000001 13.9150000000000027   F   F   F
 11.3495600000000003  4.7876800000000008 16.2810000000000024   F   F   F
  9.7799399999999999  2.1856799999999996 13.9150000000000027   F   F   F
  8.3310600000000008  3.0183199999999997 16.2810000000000024   F   F   F
  8.2103199999999994  1.3009999999999999 12.7320000000000029   F   F   F
  9.9006799999999995  3.9030000000000005 15.0980000000000025   F   F   F
  6.7614400000000003  0.4163200000000001 18.6470000000000020   T   T   T
 11.3495600000000003  4.7876800000000008 21.0130000000000052   T   T   T
  9.7799399999999999  2.1856799999999996 18.6470000000000020   T   T   T
  8.3310600000000008  3.0183199999999997 21.0130000000000052   T   T   T
  8.2103199999999994  1.3009999999999999 17.4640000000000022   T   T   T
  9.9006799999999995  3.9030000000000005 19.8300000000000018   T   T   T
  6.7614400000000003  0.4163200000000001 23.3790000000000049   T   T   T
 11.3495600000000003  4.7876800000000008 25.7450000000000045   T   T   T
  9.7799399999999999  2.1856799999999996 23.3790000000000049   T   T   T
  8.3310600000000008  3.0183199999999997 25.7450000000000045   T   T   T
  8.2103199999999994  1.3009999999999999 22.1960000000000051   T   T   T
  9.9006799999999995  3.9030000000000005 24.5620000000000047   T   T   T
  6.7614400000000003  5.6203199999999995  9.1829999999999998   F   F   F
 11.3495600000000003  9.9916800000000006 11.5490000000000030   F   F   F
  9.7799399999999999  7.3896799999999994  9.1829999999999998   F   F   F
  8.3310600000000008  8.2223199999999999 11.5490000000000030   F   F   F
  8.2103199999999994  6.5049999999999999  8.0000000000000000   F   F   F
  9.9006799999999995  9.1069999999999993 10.3659999999999997   F   F   F
  6.7614400000000003  5.6203199999999995 13.9150000000000027   F   F   F
 11.3495600000000003  9.9916800000000006 16.2810000000000024   F   F   F
  9.7799399999999999  7.3896799999999994 13.9150000000000027   F   F   F
  8.3310600000000008  8.2223199999999999 16.2810000000000024   F   F   F
  8.2103199999999994  6.5049999999999999 12.7320000000000029   F   F   F
  9.9006799999999995  9.1069999999999993 15.0980000000000025   F   F   F
  6.7614400000000003  5.6203199999999995 18.6470000000000020   T   T   T
 11.3495600000000003  9.9916800000000006 21.0130000000000052   T   T   T
  9.7799399999999999  7.3896799999999994 18.6470000000000020   T   T   T
  8.3310600000000008  8.2223199999999999 21.0130000000000052   T   T   T
  8.2103199999999994  6.5049999999999999 17.4640000000000022   T   T   T
  9.9006799999999995  9.1069999999999993 19.8300000000000018   T   T   T
  6.7614400000000003  5.6203199999999995 23.3790000000000049   T   T   T
 11.3495600000000003  9.9916800000000006 25.7450000000000045   T   T   T
  9.7799399999999999  7.3896799999999994 23.3790000000000049   T   T   T
  8.3310600000000008  8.2223199999999999 25.7450000000000045   T   T   T
  8.2103199999999994  6.5049999999999999 22.1960000000000051   T   T   T
  9.9006799999999995  9.1069999999999993 24.5620000000000047   T   T   T
