Mo S  Mo S  Mo S  Mo S  Mo S  Mo S  Mo S  Mo S  Mo S  Mo S  Mo S  Mo S  Mo S  Mo S  Mo S  Mo S 
 1.0000000000000000
    10.9465611038353039    0.0000000000000000    0.0000000000000000
     0.0000000000000000   24.5899999999999999    0.0000000000000000
     0.0000000000000000    0.0000000000000000   20.7400000000000020
 Mo  S   Mo  S   Mo  S   Mo  S   Mo  S   Mo  S   Mo  S   Mo  S   Mo  S   Mo  S   Mo  S   Mo  S   Mo  S   Mo  S   Mo  S   Mo  S  
   1   2   1   2   1   2   1   2   1   2   1   2   1   2   1   2   1   2   1   2   1   2   1   2   1   2   1   2   1   2   1   2
Selective dynamics
Cartesian
  5.4732805519176511  6.1475000000000000  8.0000000000000000   F   F   F
  1.8244268506392165  4.6721000000000004  8.0000000000000000   F   F   F
  3.6488537012784339  7.6228999999999996  8.0000000000000000   F   F   F
  2.7366402759588255  6.1475000000000000  9.5800000000000001   F   F   F
  4.5610671265980427  4.6721000000000004  9.5800000000000001   F   F   F
  0.9122134253196066  7.6228999999999996  9.5800000000000001   F   F   F
  0.0000000000000000  6.1475000000000000 11.1600000000000001   T   T   T
  1.8244268506392169  4.6721000000000004 11.1600000000000001   T   T   T
  3.6488537012784352  7.6228999999999996 11.1600000000000001   T   T   T
  2.7366402759588260  6.1475000000000000 12.7400000000000020   T   T   T
  4.5610671265980427  4.6721000000000004 12.7400000000000020   T   T   T
  0.9122134253196078  7.6228999999999996 12.7400000000000020   T   T   T
  5.4732805519176511 18.4424999999999990  8.0000000000000000   F   F   F
  1.8244268506392165 16.9671000000000021  8.0000000000000000   F   F   F
  3.6488537012784339 19.9178999999999995  8.0000000000000000   F   F   F
  2.7366402759588255 18.4424999999999990  9.5800000000000001   F   F   F
  4.5610671265980427 16.9671000000000021  9.5800000000000001   F   F   F
  0.9122134253196066 19.9178999999999995  9.5800000000000001   F   F   F
  0.0000000000000000 18.4424999999999990 11.1600000000000001   T   T   T
  1.8244268506392169 16.9671000000000021 11.1600000000000001   T   T   T
  3.6488537012784352 19.9178999999999995 11.1600000000000001   T   T   T
  2.7366402759588260 18.4424999999999990 12.7400000000000020   T   T   T
  4.5610671265980427 16.9671000000000021 12.7400000000000020   T   T   T
  0.9122134253196078 19.9178999999999995 12.7400000000000020   T   T   T
 10.9465611038353039  6.1475000000000000  8.0000000000000000   F   F   F
  7.2977074025568687  4.6721000000000004  8.0000000000000000   F   F   F
  9.1221342531960854  7.6228999999999996  8.0000000000000000   F   F   F
  8.2099208278764770  6.1475000000000000  9.5800000000000001   F   F   F
 10.0343476785156938  4.6721000000000004  9.5800000000000001   F   F   F
  6.3854939772372585  7.6228999999999996  9.5800000000000001   F   F   F
  5.4732805519176519  6.1475000000000000 11.1600000000000001   T   T   T
  7.2977074025568687  4.6721000000000004 11.1600000000000001   T   T   T
  9.1221342531960872  7.6228999999999996 11.1600000000000001   T   T   T
  8.2099208278764770  6.1475000000000000 12.7400000000000020   T   T   T
 10.0343476785156938  4.6721000000000004 12.7400000000000020   T   T   T
  6.3854939772372594  7.6228999999999996 12.7400000000000020   T   T   T
 10.9465611038353039 18.4424999999999990  8.0000000000000000   F   F   F
  7.2977074025568687 16.9671000000000021  8.0000000000000000   F   F   F
  9.1221342531960854 19.9178999999999995  8.0000000000000000   F   F   F
  8.2099208278764770 18.4424999999999990  9.5800000000000001   F   F   F
 10.0343476785156938 16.9671000000000021  9.5800000000000001   F   F   F
  6.3854939772372585 19.9178999999999995  9.5800000000000001   F   F   F
  5.4732805519176519 18.4424999999999990 11.1600000000000001   T   T   T
  7.2977074025568687 16.9671000000000021 11.1600000000000001   T   T   T
  9.1221342531960872 19.9178999999999995 11.1600000000000001   T   T   T
  8.2099208278764770 18.4424999999999990 12.7400000000000020   T   T   T
 10.0343476785156938 16.9671000000000021 12.7400000000000020   T   T   T
  6.3854939772372594 19.9178999999999995 12.7400000000000020   T   T   T
