Mo S  Mo S  Mo S  Mo S 
 1.0000000000000000
     6.3200000000000003    0.0000000000000000    0.0000000000000000
    -3.1600000000000001    5.4732805519176519    0.0000000000000000
     0.0000000000000000    0.0000000000000000   18.9507999999999974
 Mo  S   Mo  S   Mo  S   Mo  S  
   1   2   1   2   1   2   1   2
Selective dynamics
Cartesian
  0.0000000000000000  0.0000000000000000  9.4754000000000005   T   T   T
 -0.0000000000000001  1.8244268506392172 10.9508000000000010   T   T   T
  1.5799999999999998  0.9122134253196086  8.0000000000000000   F   F   F
 -1.5800000000000001  2.7366402759588260  9.4754000000000005   T   T   T
 -1.5800000000000001  4.5610671265980436 10.9508000000000010   T   T   T
 -0.0000000000000002  3.6488537012784343  8.0000000000000000   F   F   F
  3.1600000000000001  0.0000000000000000  9.4754000000000005   T   T   T
  3.1600000000000001  1.8244268506392172 10.9508000000000010   T   T   T
  4.7400000000000002  0.9122134253196086  8.0000000000000000   F   F   F
  1.5800000000000001  2.7366402759588260  9.4754000000000005   T   T   T
  1.5800000000000001  4.5610671265980436 10.9508000000000010   T   T   T
  3.1600000000000001  3.6488537012784343  8.0000000000000000   F   F   F
