Mo Se Mo Se Mo Se Mo Se Mo Se Mo Se Mo Se Mo Se Mo Se Mo Se Mo Se Mo Se Mo Se Mo Se Mo Se Mo Se Mo Se Mo Se Mo Se Mo Se Mo Se Mo Se Mo Se Mo Se Mo Se Mo Se Mo Se Mo Se Mo Se Mo Se
 1.0000000000000000
    50.2688752807346901    0.0000000000000000    0.0000000000000000
    -4.9335000000000004    8.5450726591410557    0.0000000000000000
     0.0000000000000000    0.0000000000000000   19.1188000000000002
 Mo  Se  Mo  Se  Mo  Se  Mo  Se  Mo  Se  Mo  Se  Mo  Se  Mo  Se  Mo  Se  Mo  Se  Mo  Se  Mo  Se  Mo  Se  Mo  Se  Mo  Se  Mo  Se  Mo  Se  Mo  Se  Mo  Se  Mo  Se  Mo  Se  Mo  Se  Mo  Se  Mo  Se  Mo  Se  Mo  Se  Mo  Se  Mo  Se  Mo  Se  Mo  Se 
   1   2   1   2   1   1   1   2   1   2   1   2   1   2   1   2   1   2   1   2   1   2   1   2   1   2   1   2   1   2   1   2   1   2   1   2   1   2   1   2   1   2   1   2   1   2   1   2   1   2   1   2   1   2   1   1   1   2   1   2
Selective dynamics
Cartesian
  9.2376043070340117  0.0000000000000000  9.5594000000000001   T   T   T
  9.2376043070340117  1.8989050353646793 11.1188000000000002   T   T   T
 10.8821043070340124  0.9494525176823396  8.0000000000000000   F   F   F
  7.5931043070340118  2.8483575530470189  9.5594000000000001   T   T   T
  7.5931043070340118  4.7472625884116981 11.1188000000000002   T   T   T
  9.2376043070340117  3.7978100707293585  8.0000000000000000   F   F   F
  5.9486043070340120  5.6967151060940378  9.5594000000000001   T   T   T
  7.5931043070340118  6.6461676237763774  8.0000000000000000   F   F   F
 12.5266043070340114  0.0000000000000000  9.5594000000000001   T   T   T
 12.5266043070340114  1.8989050353646793 11.1188000000000002   T   T   T
 14.1711043070340121  0.9494525176823396  8.0000000000000000   F   F   F
 10.8821043070340124  2.8483575530470189  9.5594000000000001   T   T   T
 10.8821043070340124  4.7472625884116981 11.1188000000000002   T   T   T
 12.5266043070340114  3.7978100707293585  8.0000000000000000   F   F   F
  9.2376043070340117  5.6967151060940378  9.5594000000000001   T   T   T
  9.2376043070340117  7.5956201414587170 11.1188000000000002   T   T   T
 10.8821043070340124  6.6461676237763774  8.0000000000000000   F   F   F
 15.8156043070340111  0.0000000000000000  9.5594000000000001   T   T   T
 15.8156043070340111  1.8989050353646793 11.1188000000000002   T   T   T
 17.4601043070340118  0.9494525176823396  8.0000000000000000   F   F   F
 14.1711043070340121  2.8483575530470189  9.5594000000000001   T   T   T
 14.1711043070340121  4.7472625884116981 11.1188000000000002   T   T   T
 15.8156043070340111  3.7978100707293585  8.0000000000000000   F   F   F
 12.5266043070340114  5.6967151060940378  9.5594000000000001   T   T   T
 12.5266043070340114  7.5956201414587170 11.1188000000000002   T   T   T
 14.1711043070340121  6.6461676237763774  8.0000000000000000   F   F   F
 19.1046043070340126  0.0000000000000000  9.5594000000000001   T   T   T
 19.1046043070340126  1.8989050353646793 11.1188000000000002   T   T   T
 20.7491043070340133  0.9494525176823396  8.0000000000000000   F   F   F
 17.4601043070340118  2.8483575530470189  9.5594000000000001   T   T   T
 17.4601043070340118  4.7472625884116981 11.1188000000000002   T   T   T
 19.1046043070340126  3.7978100707293585  8.0000000000000000   F   F   F
 15.8156043070340129  5.6967151060940378  9.5594000000000001   T   T   T
 15.8156043070340129  7.5956201414587170 11.1188000000000002   T   T   T
 17.4601043070340154  6.6461676237763774  8.0000000000000000   F   F   F
 22.3936043070340105  0.0000000000000000  9.5594000000000001   T   T   T
 22.3936043070340105  1.8989050353646793 11.1188000000000002   T   T   T
 24.0381043070340112  0.9494525176823396  8.0000000000000000   F   F   F
 20.7491043070340098  2.8483575530470189  9.5594000000000001   T   T   T
 20.7491043070340098  4.7472625884116981 11.1188000000000002   T   T   T
 22.3936043070340105  3.7978100707293585  8.0000000000000000   F   F   F
 19.1046043070340126  5.6967151060940378  9.5594000000000001   T   T   T
 19.1046043070340126  7.5956201414587170 11.1188000000000002   T   T   T
 20.7491043070340133  6.6461676237763774  8.0000000000000000   F   F   F
 25.6826043070340120  0.0000000000000000  9.5594000000000001   T   T   T
 25.6826043070340120  1.8989050353646793 11.1188000000000002   T   T   T
 27.3271043070340127  0.9494525176823396  8.0000000000000000   F   F   F
 24.0381043070340112  2.8483575530470189  9.5594000000000001   T   T   T
 24.0381043070340112  4.7472625884116981 11.1188000000000002   T   T   T
 25.6826043070340120  3.7978100707293585  8.0000000000000000   F   F   F
 22.3936043070340105  5.6967151060940378  9.5594000000000001   T   T   T
 22.3936043070340105  7.5956201414587170 11.1188000000000002   T   T   T
 24.0381043070340112  6.6461676237763774  8.0000000000000000   F   F   F
 28.9716043070340135  0.0000000000000000  9.5594000000000001   T   T   T
 28.9716043070340135  1.8989050353646793 11.1188000000000002   T   T   T
 30.6161043070340142  0.9494525176823396  8.0000000000000000   F   F   F
 27.3271043070340127  2.8483575530470189  9.5594000000000001   T   T   T
 27.3271043070340127  4.7472625884116981 11.1188000000000002   T   T   T
 28.9716043070340135  3.7978100707293585  8.0000000000000000   F   F   F
 25.6826043070340120  5.6967151060940378  9.5594000000000001   T   T   T
 25.6826043070340120  7.5956201414587170 11.1188000000000002   T   T   T
 27.3271043070340127  6.6461676237763774  8.0000000000000000   F   F   F
 32.2606043070340149  0.0000000000000000  9.5594000000000001   T   T   T
 32.2606043070340149  1.8989050353646793 11.1188000000000002   T   T   T
 33.9051043070340086  0.9494525176823396  8.0000000000000000   F   F   F
 30.6161043070340106  2.8483575530470189  9.5594000000000001   T   T   T
 30.6161043070340106  4.7472625884116981 11.1188000000000002   T   T   T
 32.2606043070340149  3.7978100707293585  8.0000000000000000   F   F   F
 28.9716043070340099  5.6967151060940378  9.5594000000000001   T   T   T
 28.9716043070340099  7.5956201414587170 11.1188000000000002   T   T   T
 30.6161043070340106  6.6461676237763774  8.0000000000000000   F   F   F
 35.5496043070340164  0.0000000000000000  9.5594000000000001   T   T   T
 35.5496043070340164  1.8989050353646793 11.1188000000000002   T   T   T
 37.1941043070340100  0.9494525176823396  8.0000000000000000   F   F   F
 33.9051043070340086  2.8483575530470189  9.5594000000000001   T   T   T
 33.9051043070340086  4.7472625884116981 11.1188000000000002   T   T   T
 35.5496043070340164  3.7978100707293585  8.0000000000000000   F   F   F
 32.2606043070340149  5.6967151060940378  9.5594000000000001   T   T   T
 32.2606043070340149  7.5956201414587170 11.1188000000000002   T   T   T
 33.9051043070340086  6.6461676237763774  8.0000000000000000   F   F   F
 38.8386043070340179  0.0000000000000000  9.5594000000000001   T   T   T
 38.8386043070340179  1.8989050353646793 11.1188000000000002   T   T   T
 37.1941043070340100  2.8483575530470189  9.5594000000000001   T   T   T
 37.1941043070340100  4.7472625884116981 11.1188000000000002   T   T   T
 38.8386043070340179  3.7978100707293585  8.0000000000000000   F   F   F
 35.5496043070340164  5.6967151060940378  9.5594000000000001   T   T   T
 35.5496043070340164  7.5956201414587170 11.1188000000000002   T   T   T
 37.1941043070340100  6.6461676237763774  8.0000000000000000   F   F   F
