Ni Mo S  Mo S  Mo S  Mo S  Mo S  Mo S  Mo S  Mo S  Pt
 1.0000000000000000
     7.4670476093299420    0.0000000000000000    0.0000000000000000
     3.7335238046649710    6.4666529209475900    0.0000000000000000
     0.0000000000000000    0.0000000000000000   26.2400391963844761
 Ni  Mo  S   Mo  S   Mo  S   Mo  S   Mo  S   Mo  S   Mo  S   Mo  S   Pt 
  36   1   2   1   2   1   2   1   2   1   2   1   2   1   2   1   2   2
Selective dynamics
Cartesian
  0.0000000000000000  0.0000000000000000  8.0000000000000000   F   F   F
  2.4890158697766473  0.0000000000000000  8.0000000000000000   F   F   F
  4.9780317395532947  0.0000000000000000  8.0000000000000000   F   F   F
  1.2445079348883237  2.1555509736491967  8.0000000000000000   F   F   F
  3.7335238046649710  2.1555509736491967  8.0000000000000000   F   F   F
  6.2225396744416184  2.1555509736491967  8.0000000000000000   F   F   F
  2.4890158697766473  4.3111019472983934  8.0000000000000000   F   F   F
  4.9780317395532947  4.3111019472983934  8.0000000000000000   F   F   F
  7.4670476093299420  4.3111019472983934  8.0000000000000000   F   F   F
  1.2445079348883237  0.7185169912163989 10.0322729475474830   F   F   F
  3.7335238046649706  0.7185169912163989 10.0322729475474830   F   F   F
  6.2225396744416193  0.7185169912163989 10.0322729475474830   F   F   F
  2.4890158697766473  2.8740679648655956 10.0322729475474830   F   F   F
  4.9780317395532947  2.8740679648655956 10.0322729475474830   F   F   F
  7.4670476093299429  2.8740679648655956 10.0322729475474830   F   F   F
  3.7335238046649710  5.0296189385147922 10.0322729475474830   F   F   F
  6.2225396744416184  5.0296189385147922 10.0322729475474830   F   F   F
  8.7115555442182657  5.0296189385147922 10.0322729475474830   F   F   F
  0.0000000000000000  1.4370339824327978 12.0645458950949660   T   T   T
  2.4890158697766473  1.4370339824327978 12.0645458950949660   T   T   T
  4.9780317395532947  1.4370339824327978 12.0645458950949660   T   T   T
  1.2445079348883237  3.5925849560819940 12.0645458950949660   T   T   T
  3.7335238046649710  3.5925849560819940 12.0645458950949660   T   T   T
  6.2225396744416184  3.5925849560819940 12.0645458950949660   T   T   T
  2.4890158697766473  5.7481359297311911 12.0645458950949660   T   T   T
  4.9780317395532947  5.7481359297311911 12.0645458950949660   T   T   T
  7.4670476093299420  5.7481359297311911 12.0645458950949660   T   T   T
  0.0000000000000000  0.0000000000000000 14.0968188426424490   T   T   T
  2.4890158697766473  0.0000000000000000 14.0968188426424490   T   T   T
  4.9780317395532947  0.0000000000000000 14.0968188426424490   T   T   T
  1.2445079348883237  2.1555509736491967 14.0968188426424490   T   T   T
  3.7335238046649710  2.1555509736491967 14.0968188426424490   T   T   T
  6.2225396744416184  2.1555509736491967 14.0968188426424490   T   T   T
  2.4890158697766473  4.3111019472983934 14.0968188426424490   T   T   T
  4.9780317395532947  4.3111019472983934 14.0968188426424490   T   T   T
  7.4670476093299420  4.3111019472983934 14.0968188426424490   T   T   T
  2.7366402759588255  6.2987455349145565 16.4848724252626440   T   T   T
 -0.9122134253196089  4.8353792068668930 16.6729260078828396   T   T   T
  0.9122134253196078  7.7621118629622208 16.2968188426424483   T   T   T
 -0.0000000000000007  6.5001313696305045 18.0519856137642805   T   T   T
  1.8244268506392181  5.0367650415828411 18.2400391963844761   T   T   T
  3.6488537012784334  7.9634976976781688 17.8639320311440848   T   T   T
 -0.0000000000000009 18.6948507700277204 16.4848724252626440   T   T   T
 -3.6488537012784352 17.2314844419800579 16.6729260078828396   T   T   T
 -1.8244268506392185 20.1582170980753830 16.2968188426424483   T   T   T
 -2.7366402759588273 18.8962366047436667 18.0519856137642805   T   T   T
 -0.9122134253196084 17.4328702766960042 18.2400391963844761   T   T   T
  0.9122134253196070 20.3596029327913328 17.8639320311440848   T   T   T
  8.2099208278764770  6.2987455349145565 16.4848724252626440   T   T   T
  4.5610671265980427  4.8353792068668930 16.6729260078828396   T   T   T
  6.3854939772372594  7.7621118629622208 16.2968188426424483   T   T   T
  5.4732805519176511  6.5001313696305045 18.0519856137642805   T   T   T
  7.2977074025568704  5.0367650415828411 18.2400391963844761   T   T   T
  9.1221342531960854  7.9634976976781688 17.8639320311440848   T   T   T
  5.4732805519176511 18.6948507700277204 16.4848724252626440   T   T   T
  1.8244268506392167 17.2314844419800579 16.6729260078828396   T   T   T
  3.6488537012784334 20.1582170980753830 16.2968188426424483   T   T   T
  2.7366402759588246 18.8962366047436667 18.0519856137642805   T   T   T
  4.5610671265980436 17.4328702766960042 18.2400391963844761   T   T   T
  6.3854939772372585 20.3596029327913328 17.8639320311440848   T   T   T
  2.3214465834157600  6.6556596581685428 20.0400391963844768   T   T   T
  4.7214465834157604  6.6556596581685428 20.0400391963844768   T   T   T
