Mo C  Mo C  Mo C  Mo C  Mo C  Mo C  Mo C  Mo C  Mo C  Mo C  Mo C  Mo C  Mo C  Mo C  Mo C  Mo C  Mo C  Mo C  Mo C  Mo C  Mo C  Mo C  Mo C  Mo C  Mo C  Mo C  Mo C  Mo C  Mo C  Mo C  Mo C  Mo C  Mo C  Mo C  Mo C  Mo C  Mo C  Mo C  Mo C  Mo C  Mo C  Mo C  Mo C  Mo C  Mo C  Mo C  Mo C  Mo C  Mo C  Mo C  Mo C  Mo C  Mo C  Mo C  Mo C  Mo C  Mo C  Mo C  Mo C  Mo C  Mo C  Mo C  Mo C  Mo C 
 1.0000000000000000
    24.1479999999999997    0.0000000000000000    0.0000000000000000
     0.0000000000000000   20.8159999999999989    0.0000000000000000
     0.0000000000000000    0.0000000000000000   37.7450000000000045
 Mo  C   Mo  C   Mo  C   Mo  C   Mo  C   Mo  C   Mo  C   Mo  C   Mo  C   Mo  C   Mo  C   Mo  C   Mo  C   Mo  C   Mo  C   Mo  C   Mo  C   Mo  C   Mo  C   Mo  C   Mo  C   Mo  C   Mo  C   Mo  C   Mo  C   Mo  C   Mo  C   Mo  C   Mo  C   Mo  C   Mo  C   Mo  C   Mo  C   Mo  C   Mo  C   Mo  C   Mo  C   Mo  C   Mo  C   Mo  C   Mo  C   Mo  C   Mo  C   Mo  C   Mo  C   Mo  C   Mo  C   Mo  C   Mo  C   Mo  C   Mo  C   Mo  C   Mo  C   Mo  C   Mo  C   Mo  C   Mo  C   Mo  C   Mo  C   Mo  C   Mo  C   Mo  C   Mo  C   Mo  C  
   4   2   4   2   4   2   4   2   4   2   4   2   4   2   4   2   4   2   4   2   4   2   4   2   4   2   4   2   4   2   4   2   4   2   4   2   4   2   4   2   4   2   4   2   4   2   4   2   4   2   4   2   4   2   4   2   4   2   4   2   4   2   4   2   4   2   4   2   4   2   4   2   4   2   4   2   4   2   4   2   4   2   4   2   4   2   4   2   4   2   4   2   4   2   4   2   4   2   4   2   4   2   4   2   4   2   4   2   4   2   4   2   4   2   4   2   4   2   4   2   4   2   4   2   4   2   4   2
Selective dynamics
Cartesian
  0.7244400000000000  0.4163200000000001 11.1829999999999998   F   F   F
  5.3125600000000004  4.7876800000000008 13.5490000000000030   F   F   F
  3.7429399999999999  2.1856799999999996 11.1829999999999998   F   F   F
  2.2940600000000000  3.0183199999999997 13.5490000000000030   F   F   F
  2.1733199999999999  1.3009999999999999 10.0000000000000000   F   F   F
  3.8636800000000000  3.9030000000000005 12.3659999999999997   F   F   F
  0.7244400000000000  0.4163200000000001 15.9150000000000027   F   F   F
  5.3125600000000004  4.7876800000000008 18.2810000000000024   F   F   F
  3.7429399999999999  2.1856799999999996 15.9150000000000027   F   F   F
  2.2940600000000000  3.0183199999999997 18.2810000000000024   F   F   F
  2.1733199999999999  1.3009999999999999 14.7320000000000029   F   F   F
  3.8636800000000000  3.9030000000000005 17.0980000000000025   F   F   F
  0.7244400000000000  0.4163200000000001 20.6470000000000020   T   T   T
  5.3125600000000004  4.7876800000000008 23.0130000000000052   T   T   T
  3.7429399999999999  2.1856799999999996 20.6470000000000020   T   T   T
  2.2940600000000000  3.0183199999999997 23.0130000000000052   T   T   T
  2.1733199999999999  1.3009999999999999 19.4640000000000022   T   T   T
  3.8636800000000000  3.9030000000000005 21.8300000000000018   T   T   T
  0.7244400000000000  0.4163200000000001 25.3790000000000049   T   T   T
  5.3125600000000004  4.7876800000000008 27.7450000000000045   T   T   T
  3.7429399999999999  2.1856799999999996 25.3790000000000049   T   T   T
  2.2940600000000000  3.0183199999999997 27.7450000000000045   T   T   T
  2.1733199999999999  1.3009999999999999 24.1960000000000051   T   T   T
  3.8636800000000000  3.9030000000000005 26.5620000000000047   T   T   T
  0.7244400000000000  5.6203199999999995 11.1829999999999998   F   F   F
  5.3125600000000004  9.9916800000000006 13.5490000000000030   F   F   F
  3.7429399999999999  7.3896799999999994 11.1829999999999998   F   F   F
  2.2940600000000000  8.2223199999999999 13.5490000000000030   F   F   F
  2.1733199999999999  6.5049999999999999 10.0000000000000000   F   F   F
  3.8636800000000000  9.1069999999999993 12.3659999999999997   F   F   F
  0.7244400000000000  5.6203199999999995 15.9150000000000027   F   F   F
  5.3125600000000004  9.9916800000000006 18.2810000000000024   F   F   F
  3.7429399999999999  7.3896799999999994 15.9150000000000027   F   F   F
  2.2940600000000000  8.2223199999999999 18.2810000000000024   F   F   F
  2.1733199999999999  6.5049999999999999 14.7320000000000029   F   F   F
  3.8636800000000000  9.1069999999999993 17.0980000000000025   F   F   F
  0.7244400000000000  5.6203199999999995 20.6470000000000020   T   T   T
  5.3125600000000004  9.9916800000000006 23.0130000000000052   T   T   T
  3.7429399999999999  7.3896799999999994 20.6470000000000020   T   T   T
  2.2940600000000000  8.2223199999999999 23.0130000000000052   T   T   T
  2.1733199999999999  6.5049999999999999 19.4640000000000022   T   T   T
  3.8636800000000000  9.1069999999999993 21.8300000000000018   T   T   T
  0.7244400000000000  5.6203199999999995 25.3790000000000049   T   T   T
  5.3125600000000004  9.9916800000000006 27.7450000000000045   T   T   T
  3.7429399999999999  7.3896799999999994 25.3790000000000049   T   T   T
  2.2940600000000000  8.2223199999999999 27.7450000000000045   T   T   T
  2.1733199999999999  6.5049999999999999 24.1960000000000051   T   T   T
  3.8636800000000000  9.1069999999999993 26.5620000000000047   T   T   T
  0.7244400000000000 10.8243200000000002 11.1829999999999998   F   F   F
  5.3125600000000004 15.1956799999999994 13.5490000000000030   F   F   F
  3.7429399999999999 12.5936799999999991 11.1829999999999998   F   F   F
  2.2940600000000000 13.4263199999999987 13.5490000000000030   F   F   F
  2.1733199999999999 11.7089999999999996 10.0000000000000000   F   F   F
  3.8636800000000000 14.3109999999999999 12.3659999999999997   F   F   F
  0.7244400000000000 10.8243200000000002 15.9150000000000027   F   F   F
  5.3125600000000004 15.1956799999999994 18.2810000000000024   F   F   F
  3.7429399999999999 12.5936799999999991 15.9150000000000027   F   F   F
  2.2940600000000000 13.4263199999999987 18.2810000000000024   F   F   F
  2.1733199999999999 11.7089999999999996 14.7320000000000029   F   F   F
  3.8636800000000000 14.3109999999999999 17.0980000000000025   F   F   F
  0.7244400000000000 10.8243200000000002 20.6470000000000020   T   T   T
  5.3125600000000004 15.1956799999999994 23.0130000000000052   T   T   T
  3.7429399999999999 12.5936799999999991 20.6470000000000020   T   T   T
  2.2940600000000000 13.4263199999999987 23.0130000000000052   T   T   T
  2.1733199999999999 11.7089999999999996 19.4640000000000022   T   T   T
  3.8636800000000000 14.3109999999999999 21.8300000000000018   T   T   T
  0.7244400000000000 10.8243200000000002 25.3790000000000049   T   T   T
  5.3125600000000004 15.1956799999999994 27.7450000000000045   T   T   T
  3.7429399999999999 12.5936799999999991 25.3790000000000049   T   T   T
  2.2940600000000000 13.4263199999999987 27.7450000000000045   T   T   T
  2.1733199999999999 11.7089999999999996 24.1960000000000051   T   T   T
  3.8636800000000000 14.3109999999999999 26.5620000000000047   T   T   T
  0.7244400000000000 16.0283199999999972 11.1829999999999998   F   F   F
  5.3125600000000004 20.3996800000000000 13.5490000000000030   F   F   F
  3.7429399999999999 17.7976799999999997 11.1829999999999998   F   F   F
  2.2940600000000000 18.6303199999999975 13.5490000000000030   F   F   F
  2.1733199999999999 16.9129999999999967 10.0000000000000000   F   F   F
  3.8636800000000000 19.5150000000000006 12.3659999999999997   F   F   F
  0.7244400000000000 16.0283199999999972 15.9150000000000027   F   F   F
  5.3125600000000004 20.3996800000000000 18.2810000000000024   F   F   F
  3.7429399999999999 17.7976799999999997 15.9150000000000027   F   F   F
  2.2940600000000000 18.6303199999999975 18.2810000000000024   F   F   F
  2.1733199999999999 16.9129999999999967 14.7320000000000029   F   F   F
  3.8636800000000000 19.5150000000000006 17.0980000000000025   F   F   F
  0.7244400000000000 16.0283199999999972 20.6470000000000020   T   T   T
  5.3125600000000004 20.3996800000000000 23.0130000000000052   T   T   T
  3.7429399999999999 17.7976799999999997 20.6470000000000020   T   T   T
  2.2940600000000000 18.6303199999999975 23.0130000000000052   T   T   T
  2.1733199999999999 16.9129999999999967 19.4640000000000022   T   T   T
  3.8636800000000000 19.5150000000000006 21.8300000000000018   T   T   T
  0.7244400000000000 16.0283199999999972 25.3790000000000049   T   T   T
  5.3125600000000004 20.3996800000000000 27.7450000000000045   T   T   T
  3.7429399999999999 17.7976799999999997 25.3790000000000049   T   T   T
  2.2940600000000000 18.6303199999999975 27.7450000000000045   T   T   T
  2.1733199999999999 16.9129999999999967 24.1960000000000051   T   T   T
  3.8636800000000000 19.5150000000000006 26.5620000000000047   T   T   T
  6.7614400000000003  0.4163200000000001 11.1829999999999998   F   F   F
 11.3495600000000003  4.7876800000000008 13.5490000000000030   F   F   F
  9.7799399999999999  2.1856799999999996 11.1829999999999998   F   F   F
  8.3310600000000008  3.0183199999999997 13.5490000000000030   F   F   F
  8.2103199999999994  1.3009999999999999 10.0000000000000000   F   F   F
  9.9006799999999995  3.9030000000000005 12.3659999999999997   F   F   F
  6.7614400000000003  0.4163200000000001 15.9150000000000027   F   F   F
 11.3495600000000003  4.7876800000000008 18.2810000000000024   F   F   F
  9.7799399999999999  2.1856799999999996 15.9150000000000027   F   F   F
  8.3310600000000008  3.0183199999999997 18.2810000000000024   F   F   F
  8.2103199999999994  1.3009999999999999 14.7320000000000029   F   F   F
  9.9006799999999995  3.9030000000000005 17.0980000000000025   F   F   F
  6.7614400000000003  0.4163200000000001 20.6470000000000020   T   T   T
 11.3495600000000003  4.7876800000000008 23.0130000000000052   T   T   T
  9.7799399999999999  2.1856799999999996 20.6470000000000020   T   T   T
  8.3310600000000008  3.0183199999999997 23.0130000000000052   T   T   T
  8.2103199999999994  1.3009999999999999 19.4640000000000022   T   T   T
  9.9006799999999995  3.9030000000000005 21.8300000000000018   T   T   T
  6.7614400000000003  0.4163200000000001 25.3790000000000049   T   T   T
 11.3495600000000003  4.7876800000000008 27.7450000000000045   T   T   T
  9.7799399999999999  2.1856799999999996 25.3790000000000049   T   T   T
  8.3310600000000008  3.0183199999999997 27.7450000000000045   T   T   T
  8.2103199999999994  1.3009999999999999 24.1960000000000051   T   T   T
  9.9006799999999995  3.9030000000000005 26.5620000000000047   T   T   T
  6.7614400000000003  5.6203199999999995 11.1829999999999998   F   F   F
 11.3495600000000003  9.9916800000000006 13.5490000000000030   F   F   F
  9.7799399999999999  7.3896799999999994 11.1829999999999998   F   F   F
  8.3310600000000008  8.2223199999999999 13.5490000000000030   F   F   F
  8.2103199999999994  6.5049999999999999 10.0000000000000000   F   F   F
  9.9006799999999995  9.1069999999999993 12.3659999999999997   F   F   F
  6.7614400000000003  5.6203199999999995 15.9150000000000027   F   F   F
 11.3495600000000003  9.9916800000000006 18.2810000000000024   F   F   F
  9.7799399999999999  7.3896799999999994 15.9150000000000027   F   F   F
  8.3310600000000008  8.2223199999999999 18.2810000000000024   F   F   F
  8.2103199999999994  6.5049999999999999 14.7320000000000029   F   F   F
  9.9006799999999995  9.1069999999999993 17.0980000000000025   F   F   F
  6.7614400000000003  5.6203199999999995 20.6470000000000020   T   T   T
 11.3495600000000003  9.9916800000000006 23.0130000000000052   T   T   T
  9.7799399999999999  7.3896799999999994 20.6470000000000020   T   T   T
  8.3310600000000008  8.2223199999999999 23.0130000000000052   T   T   T
  8.2103199999999994  6.5049999999999999 19.4640000000000022   T   T   T
  9.9006799999999995  9.1069999999999993 21.8300000000000018   T   T   T
  6.7614400000000003  5.6203199999999995 25.3790000000000049   T   T   T
 11.3495600000000003  9.9916800000000006 27.7450000000000045   T   T   T
  9.7799399999999999  7.3896799999999994 25.3790000000000049   T   T   T
  8.3310600000000008  8.2223199999999999 27.7450000000000045   T   T   T
  8.2103199999999994  6.5049999999999999 24.1960000000000051   T   T   T
  9.9006799999999995  9.1069999999999993 26.5620000000000047   T   T   T
  6.7614400000000003 10.8243200000000002 11.1829999999999998   F   F   F
 11.3495600000000003 15.1956799999999994 13.5490000000000030   F   F   F
  9.7799399999999999 12.5936799999999991 11.1829999999999998   F   F   F
  8.3310600000000008 13.4263199999999987 13.5490000000000030   F   F   F
  8.2103199999999994 11.7089999999999996 10.0000000000000000   F   F   F
  9.9006799999999995 14.3109999999999999 12.3659999999999997   F   F   F
  6.7614400000000003 10.8243200000000002 15.9150000000000027   F   F   F
 11.3495600000000003 15.1956799999999994 18.2810000000000024   F   F   F
  9.7799399999999999 12.5936799999999991 15.9150000000000027   F   F   F
  8.3310600000000008 13.4263199999999987 18.2810000000000024   F   F   F
  8.2103199999999994 11.7089999999999996 14.7320000000000029   F   F   F
  9.9006799999999995 14.3109999999999999 17.0980000000000025   F   F   F
  6.7614400000000003 10.8243200000000002 20.6470000000000020   T   T   T
 11.3495600000000003 15.1956799999999994 23.0130000000000052   T   T   T
  9.7799399999999999 12.5936799999999991 20.6470000000000020   T   T   T
  8.3310600000000008 13.4263199999999987 23.0130000000000052   T   T   T
  8.2103199999999994 11.7089999999999996 19.4640000000000022   T   T   T
  9.9006799999999995 14.3109999999999999 21.8300000000000018   T   T   T
  6.7614400000000003 10.8243200000000002 25.3790000000000049   T   T   T
 11.3495600000000003 15.1956799999999994 27.7450000000000045   T   T   T
  9.7799399999999999 12.5936799999999991 25.3790000000000049   T   T   T
  8.3310600000000008 13.4263199999999987 27.7450000000000045   T   T   T
  8.2103199999999994 11.7089999999999996 24.1960000000000051   T   T   T
  9.9006799999999995 14.3109999999999999 26.5620000000000047   T   T   T
  6.7614400000000003 16.0283199999999972 11.1829999999999998   F   F   F
 11.3495600000000003 20.3996800000000000 13.5490000000000030   F   F   F
  9.7799399999999999 17.7976799999999997 11.1829999999999998   F   F   F
  8.3310600000000008 18.6303199999999975 13.5490000000000030   F   F   F
  8.2103199999999994 16.9129999999999967 10.0000000000000000   F   F   F
  9.9006799999999995 19.5150000000000006 12.3659999999999997   F   F   F
  6.7614400000000003 16.0283199999999972 15.9150000000000027   F   F   F
 11.3495600000000003 20.3996800000000000 18.2810000000000024   F   F   F
  9.7799399999999999 17.7976799999999997 15.9150000000000027   F   F   F
  8.3310600000000008 18.6303199999999975 18.2810000000000024   F   F   F
  8.2103199999999994 16.9129999999999967 14.7320000000000029   F   F   F
  9.9006799999999995 19.5150000000000006 17.0980000000000025   F   F   F
  6.7614400000000003 16.0283199999999972 20.6470000000000020   T   T   T
 11.3495600000000003 20.3996800000000000 23.0130000000000052   T   T   T
  9.7799399999999999 17.7976799999999997 20.6470000000000020   T   T   T
  8.3310600000000008 18.6303199999999975 23.0130000000000052   T   T   T
  8.2103199999999994 16.9129999999999967 19.4640000000000022   T   T   T
  9.9006799999999995 19.5150000000000006 21.8300000000000018   T   T   T
  6.7614400000000003 16.0283199999999972 25.3790000000000049   T   T   T
 11.3495600000000003 20.3996800000000000 27.7450000000000045   T   T   T
  9.7799399999999999 17.7976799999999997 25.3790000000000049   T   T   T
  8.3310600000000008 18.6303199999999975 27.7450000000000045   T   T   T
  8.2103199999999994 16.9129999999999967 24.1960000000000051   T   T   T
  9.9006799999999995 19.5150000000000006 26.5620000000000047   T   T   T
 12.7984399999999994  0.4163200000000001 11.1829999999999998   F   F   F
 17.3865599999999993  4.7876800000000008 13.5490000000000030   F   F   F
 15.8169399999999989  2.1856799999999996 11.1829999999999998   F   F   F
 14.3680599999999998  3.0183199999999997 13.5490000000000030   F   F   F
 14.2473200000000002  1.3009999999999999 10.0000000000000000   F   F   F
 15.9376800000000003  3.9030000000000005 12.3659999999999997   F   F   F
 12.7984399999999994  0.4163200000000001 15.9150000000000027   F   F   F
 17.3865599999999993  4.7876800000000008 18.2810000000000024   F   F   F
 15.8169399999999989  2.1856799999999996 15.9150000000000027   F   F   F
 14.3680599999999998  3.0183199999999997 18.2810000000000024   F   F   F
 14.2473200000000002  1.3009999999999999 14.7320000000000029   F   F   F
 15.9376800000000003  3.9030000000000005 17.0980000000000025   F   F   F
 12.7984399999999994  0.4163200000000001 20.6470000000000020   T   T   T
 17.3865599999999993  4.7876800000000008 23.0130000000000052   T   T   T
 15.8169399999999989  2.1856799999999996 20.6470000000000020   T   T   T
 14.3680599999999998  3.0183199999999997 23.0130000000000052   T   T   T
 14.2473200000000002  1.3009999999999999 19.4640000000000022   T   T   T
 15.9376800000000003  3.9030000000000005 21.8300000000000018   T   T   T
 12.7984399999999994  0.4163200000000001 25.3790000000000049   T   T   T
 17.3865599999999993  4.7876800000000008 27.7450000000000045   T   T   T
 15.8169399999999989  2.1856799999999996 25.3790000000000049   T   T   T
 14.3680599999999998  3.0183199999999997 27.7450000000000045   T   T   T
 14.2473200000000002  1.3009999999999999 24.1960000000000051   T   T   T
 15.9376800000000003  3.9030000000000005 26.5620000000000047   T   T   T
 12.7984399999999994  5.6203199999999995 11.1829999999999998   F   F   F
 17.3865599999999993  9.9916800000000006 13.5490000000000030   F   F   F
 15.8169399999999989  7.3896799999999994 11.1829999999999998   F   F   F
 14.3680599999999998  8.2223199999999999 13.5490000000000030   F   F   F
 14.2473200000000002  6.5049999999999999 10.0000000000000000   F   F   F
 15.9376800000000003  9.1069999999999993 12.3659999999999997   F   F   F
 12.7984399999999994  5.6203199999999995 15.9150000000000027   F   F   F
 17.3865599999999993  9.9916800000000006 18.2810000000000024   F   F   F
 15.8169399999999989  7.3896799999999994 15.9150000000000027   F   F   F
 14.3680599999999998  8.2223199999999999 18.2810000000000024   F   F   F
 14.2473200000000002  6.5049999999999999 14.7320000000000029   F   F   F
 15.9376800000000003  9.1069999999999993 17.0980000000000025   F   F   F
 12.7984399999999994  5.6203199999999995 20.6470000000000020   T   T   T
 17.3865599999999993  9.9916800000000006 23.0130000000000052   T   T   T
 15.8169399999999989  7.3896799999999994 20.6470000000000020   T   T   T
 14.3680599999999998  8.2223199999999999 23.0130000000000052   T   T   T
 14.2473200000000002  6.5049999999999999 19.4640000000000022   T   T   T
 15.9376800000000003  9.1069999999999993 21.8300000000000018   T   T   T
 12.7984399999999994  5.6203199999999995 25.3790000000000049   T   T   T
 17.3865599999999993  9.9916800000000006 27.7450000000000045   T   T   T
 15.8169399999999989  7.3896799999999994 25.3790000000000049   T   T   T
 14.3680599999999998  8.2223199999999999 27.7450000000000045   T   T   T
 14.2473200000000002  6.5049999999999999 24.1960000000000051   T   T   T
 15.9376800000000003  9.1069999999999993 26.5620000000000047   T   T   T
 12.7984399999999994 10.8243200000000002 11.1829999999999998   F   F   F
 17.3865599999999993 15.1956799999999994 13.5490000000000030   F   F   F
 15.8169399999999989 12.5936799999999991 11.1829999999999998   F   F   F
 14.3680599999999998 13.4263199999999987 13.5490000000000030   F   F   F
 14.2473200000000002 11.7089999999999996 10.0000000000000000   F   F   F
 15.9376800000000003 14.3109999999999999 12.3659999999999997   F   F   F
 12.7984399999999994 10.8243200000000002 15.9150000000000027   F   F   F
 17.3865599999999993 15.1956799999999994 18.2810000000000024   F   F   F
 15.8169399999999989 12.5936799999999991 15.9150000000000027   F   F   F
 14.3680599999999998 13.4263199999999987 18.2810000000000024   F   F   F
 14.2473200000000002 11.7089999999999996 14.7320000000000029   F   F   F
 15.9376800000000003 14.3109999999999999 17.0980000000000025   F   F   F
 12.7984399999999994 10.8243200000000002 20.6470000000000020   T   T   T
 17.3865599999999993 15.1956799999999994 23.0130000000000052   T   T   T
 15.8169399999999989 12.5936799999999991 20.6470000000000020   T   T   T
 14.3680599999999998 13.4263199999999987 23.0130000000000052   T   T   T
 14.2473200000000002 11.7089999999999996 19.4640000000000022   T   T   T
 15.9376800000000003 14.3109999999999999 21.8300000000000018   T   T   T
 12.7984399999999994 10.8243200000000002 25.3790000000000049   T   T   T
 17.3865599999999993 15.1956799999999994 27.7450000000000045   T   T   T
 15.8169399999999989 12.5936799999999991 25.3790000000000049   T   T   T
 14.3680599999999998 13.4263199999999987 27.7450000000000045   T   T   T
 14.2473200000000002 11.7089999999999996 24.1960000000000051   T   T   T
 15.9376800000000003 14.3109999999999999 26.5620000000000047   T   T   T
 12.7984399999999994 16.0283199999999972 11.1829999999999998   F   F   F
 17.3865599999999993 20.3996800000000000 13.5490000000000030   F   F   F
 15.8169399999999989 17.7976799999999997 11.1829999999999998   F   F   F
 14.3680599999999998 18.6303199999999975 13.5490000000000030   F   F   F
 14.2473200000000002 16.9129999999999967 10.0000000000000000   F   F   F
 15.9376800000000003 19.5150000000000006 12.3659999999999997   F   F   F
 12.7984399999999994 16.0283199999999972 15.9150000000000027   F   F   F
 17.3865599999999993 20.3996800000000000 18.2810000000000024   F   F   F
 15.8169399999999989 17.7976799999999997 15.9150000000000027   F   F   F
 14.3680599999999998 18.6303199999999975 18.2810000000000024   F   F   F
 14.2473200000000002 16.9129999999999967 14.7320000000000029   F   F   F
 15.9376800000000003 19.5150000000000006 17.0980000000000025   F   F   F
 12.7984399999999994 16.0283199999999972 20.6470000000000020   T   T   T
 17.3865599999999993 20.3996800000000000 23.0130000000000052   T   T   T
 15.8169399999999989 17.7976799999999997 20.6470000000000020   T   T   T
 14.3680599999999998 18.6303199999999975 23.0130000000000052   T   T   T
 14.2473200000000002 16.9129999999999967 19.4640000000000022   T   T   T
 15.9376800000000003 19.5150000000000006 21.8300000000000018   T   T   T
 12.7984399999999994 16.0283199999999972 25.3790000000000049   T   T   T
 17.3865599999999993 20.3996800000000000 27.7450000000000045   T   T   T
 15.8169399999999989 17.7976799999999997 25.3790000000000049   T   T   T
 14.3680599999999998 18.6303199999999975 27.7450000000000045   T   T   T
 14.2473200000000002 16.9129999999999967 24.1960000000000051   T   T   T
 15.9376800000000003 19.5150000000000006 26.5620000000000047   T   T   T
 18.8354400000000020  0.4163200000000001 11.1829999999999998   F   F   F
 23.4235600000000019  4.7876800000000008 13.5490000000000030   F   F   F
 21.8539400000000015  2.1856799999999996 11.1829999999999998   F   F   F
 20.4050599999999989  3.0183199999999997 13.5490000000000030   F   F   F
 20.2843200000000010  1.3009999999999999 10.0000000000000000   F   F   F
 21.9746799999999993  3.9030000000000005 12.3659999999999997   F   F   F
 18.8354400000000020  0.4163200000000001 15.9150000000000027   F   F   F
 23.4235600000000019  4.7876800000000008 18.2810000000000024   F   F   F
 21.8539400000000015  2.1856799999999996 15.9150000000000027   F   F   F
 20.4050599999999989  3.0183199999999997 18.2810000000000024   F   F   F
 20.2843200000000010  1.3009999999999999 14.7320000000000029   F   F   F
 21.9746799999999993  3.9030000000000005 17.0980000000000025   F   F   F
 18.8354400000000020  0.4163200000000001 20.6470000000000020   T   T   T
 23.4235600000000019  4.7876800000000008 23.0130000000000052   T   T   T
 21.8539400000000015  2.1856799999999996 20.6470000000000020   T   T   T
 20.4050599999999989  3.0183199999999997 23.0130000000000052   T   T   T
 20.2843200000000010  1.3009999999999999 19.4640000000000022   T   T   T
 21.9746799999999993  3.9030000000000005 21.8300000000000018   T   T   T
 18.8354400000000020  0.4163200000000001 25.3790000000000049   T   T   T
 23.4235600000000019  4.7876800000000008 27.7450000000000045   T   T   T
 21.8539400000000015  2.1856799999999996 25.3790000000000049   T   T   T
 20.4050599999999989  3.0183199999999997 27.7450000000000045   T   T   T
 20.2843200000000010  1.3009999999999999 24.1960000000000051   T   T   T
 21.9746799999999993  3.9030000000000005 26.5620000000000047   T   T   T
 18.8354400000000020  5.6203199999999995 11.1829999999999998   F   F   F
 23.4235600000000019  9.9916800000000006 13.5490000000000030   F   F   F
 21.8539400000000015  7.3896799999999994 11.1829999999999998   F   F   F
 20.4050599999999989  8.2223199999999999 13.5490000000000030   F   F   F
 20.2843200000000010  6.5049999999999999 10.0000000000000000   F   F   F
 21.9746799999999993  9.1069999999999993 12.3659999999999997   F   F   F
 18.8354400000000020  5.6203199999999995 15.9150000000000027   F   F   F
 23.4235600000000019  9.9916800000000006 18.2810000000000024   F   F   F
 21.8539400000000015  7.3896799999999994 15.9150000000000027   F   F   F
 20.4050599999999989  8.2223199999999999 18.2810000000000024   F   F   F
 20.2843200000000010  6.5049999999999999 14.7320000000000029   F   F   F
 21.9746799999999993  9.1069999999999993 17.0980000000000025   F   F   F
 18.8354400000000020  5.6203199999999995 20.6470000000000020   T   T   T
 23.4235600000000019  9.9916800000000006 23.0130000000000052   T   T   T
 21.8539400000000015  7.3896799999999994 20.6470000000000020   T   T   T
 20.4050599999999989  8.2223199999999999 23.0130000000000052   T   T   T
 20.2843200000000010  6.5049999999999999 19.4640000000000022   T   T   T
 21.9746799999999993  9.1069999999999993 21.8300000000000018   T   T   T
 18.8354400000000020  5.6203199999999995 25.3790000000000049   T   T   T
 23.4235600000000019  9.9916800000000006 27.7450000000000045   T   T   T
 21.8539400000000015  7.3896799999999994 25.3790000000000049   T   T   T
 20.4050599999999989  8.2223199999999999 27.7450000000000045   T   T   T
 20.2843200000000010  6.5049999999999999 24.1960000000000051   T   T   T
 21.9746799999999993  9.1069999999999993 26.5620000000000047   T   T   T
 18.8354400000000020 10.8243200000000002 11.1829999999999998   F   F   F
 23.4235600000000019 15.1956799999999994 13.5490000000000030   F   F   F
 21.8539400000000015 12.5936799999999991 11.1829999999999998   F   F   F
 20.4050599999999989 13.4263199999999987 13.5490000000000030   F   F   F
 20.2843200000000010 11.7089999999999996 10.0000000000000000   F   F   F
 21.9746799999999993 14.3109999999999999 12.3659999999999997   F   F   F
 18.8354400000000020 10.8243200000000002 15.9150000000000027   F   F   F
 23.4235600000000019 15.1956799999999994 18.2810000000000024   F   F   F
 21.8539400000000015 12.5936799999999991 15.9150000000000027   F   F   F
 20.4050599999999989 13.4263199999999987 18.2810000000000024   F   F   F
 20.2843200000000010 11.7089999999999996 14.7320000000000029   F   F   F
 21.9746799999999993 14.3109999999999999 17.0980000000000025   F   F   F
 18.8354400000000020 10.8243200000000002 20.6470000000000020   T   T   T
 23.4235600000000019 15.1956799999999994 23.0130000000000052   T   T   T
 21.8539400000000015 12.5936799999999991 20.6470000000000020   T   T   T
 20.4050599999999989 13.4263199999999987 23.0130000000000052   T   T   T
 20.2843200000000010 11.7089999999999996 19.4640000000000022   T   T   T
 21.9746799999999993 14.3109999999999999 21.8300000000000018   T   T   T
 18.8354400000000020 10.8243200000000002 25.3790000000000049   T   T   T
 23.4235600000000019 15.1956799999999994 27.7450000000000045   T   T   T
 21.8539400000000015 12.5936799999999991 25.3790000000000049   T   T   T
 20.4050599999999989 13.4263199999999987 27.7450000000000045   T   T   T
 20.2843200000000010 11.7089999999999996 24.1960000000000051   T   T   T
 21.9746799999999993 14.3109999999999999 26.5620000000000047   T   T   T
 18.8354400000000020 16.0283199999999972 11.1829999999999998   F   F   F
 23.4235600000000019 20.3996800000000000 13.5490000000000030   F   F   F
 21.8539400000000015 17.7976799999999997 11.1829999999999998   F   F   F
 20.4050599999999989 18.6303199999999975 13.5490000000000030   F   F   F
 20.2843200000000010 16.9129999999999967 10.0000000000000000   F   F   F
 21.9746799999999993 19.5150000000000006 12.3659999999999997   F   F   F
 18.8354400000000020 16.0283199999999972 15.9150000000000027   F   F   F
 23.4235600000000019 20.3996800000000000 18.2810000000000024   F   F   F
 21.8539400000000015 17.7976799999999997 15.9150000000000027   F   F   F
 20.4050599999999989 18.6303199999999975 18.2810000000000024   F   F   F
 20.2843200000000010 16.9129999999999967 14.7320000000000029   F   F   F
 21.9746799999999993 19.5150000000000006 17.0980000000000025   F   F   F
 18.8354400000000020 16.0283199999999972 20.6470000000000020   T   T   T
 23.4235600000000019 20.3996800000000000 23.0130000000000052   T   T   T
 21.8539400000000015 17.7976799999999997 20.6470000000000020   T   T   T
 20.4050599999999989 18.6303199999999975 23.0130000000000052   T   T   T
 20.2843200000000010 16.9129999999999967 19.4640000000000022   T   T   T
 21.9746799999999993 19.5150000000000006 21.8300000000000018   T   T   T
 18.8354400000000020 16.0283199999999972 25.3790000000000049   T   T   T
 23.4235600000000019 20.3996800000000000 27.7450000000000045   T   T   T
 21.8539400000000015 17.7976799999999997 25.3790000000000049   T   T   T
 20.4050599999999989 18.6303199999999975 27.7450000000000045   T   T   T
 20.2843200000000010 16.9129999999999967 24.1960000000000051   T   T   T
 21.9746799999999993 19.5150000000000006 26.5620000000000047   T   T   T
