Mo P  Mo P  Mo P  Mo P  Mo P  Mo P  Mo P  Mo P  Mo P  Mo P  Mo P  Mo P  Mo P  Mo P  Mo P  Mo P 
 1.0000000000000000
     6.4800000000000004    0.0000000000000000    0.0000000000000000
     0.0000000000000000    6.4800000000000004    0.0000000000000000
     0.0000000000000000    0.0000000000000000   27.3399999999999999
 Mo  P   Mo  P   Mo  P   Mo  P   Mo  P   Mo  P   Mo  P   Mo  P   Mo  P   Mo  P   Mo  P   Mo  P   Mo  P   Mo  P   Mo  P   Mo  P  
   1   1   1   1   1   1   1   1   1   1   1   1   1   1   1   1   1   1   1   1   1   1   1   1   1   1   1   1   1   1   1   1
Selective dynamics
Cartesian
  0.0000000000000000  0.0000000000000000  8.0000000000000000   F   F   F
  1.6200000000000001  1.6200000000000001  9.6200000000000010   F   F   F
  0.0000000000000000  0.0000000000000000 11.2400000000000002   F   F   F
  1.6200000000000001  1.6200000000000001 12.8599999999999994   F   F   F
  0.0000000000000000  0.0000000000000000 14.4800000000000004   T   T   T
  1.6200000000000001  1.6200000000000001 16.1000000000000014   T   T   T
  0.0000000000000000  0.0000000000000000 17.7199999999999989   T   T   T
  1.6200000000000001  1.6200000000000001 19.3399999999999999   T   T   T
  0.0000000000000000  3.2400000000000002  8.0000000000000000   F   F   F
  1.6200000000000001  4.8600000000000003  9.6200000000000010   F   F   F
  0.0000000000000000  3.2400000000000002 11.2400000000000002   F   F   F
  1.6200000000000001  4.8600000000000003 12.8599999999999994   F   F   F
  0.0000000000000000  3.2400000000000002 14.4800000000000004   T   T   T
  1.6200000000000001  4.8600000000000003 16.1000000000000014   T   T   T
  0.0000000000000000  3.2400000000000002 17.7199999999999989   T   T   T
  1.6200000000000001  4.8600000000000003 19.3399999999999999   T   T   T
  3.2400000000000002  0.0000000000000000  8.0000000000000000   F   F   F
  4.8600000000000003  1.6200000000000001  9.6200000000000010   F   F   F
  3.2400000000000002  0.0000000000000000 11.2400000000000002   F   F   F
  4.8600000000000003  1.6200000000000001 12.8599999999999994   F   F   F
  3.2400000000000002  0.0000000000000000 14.4800000000000004   T   T   T
  4.8600000000000003  1.6200000000000001 16.1000000000000014   T   T   T
  3.2400000000000002  0.0000000000000000 17.7199999999999989   T   T   T
  4.8600000000000003  1.6200000000000001 19.3399999999999999   T   T   T
  3.2400000000000002  3.2400000000000002  8.0000000000000000   F   F   F
  4.8600000000000003  4.8600000000000003  9.6200000000000010   F   F   F
  3.2400000000000002  3.2400000000000002 11.2400000000000002   F   F   F
  4.8600000000000003  4.8600000000000003 12.8599999999999994   F   F   F
  3.2400000000000002  3.2400000000000002 14.4800000000000004   T   T   T
  4.8600000000000003  4.8600000000000003 16.1000000000000014   T   T   T
  3.2400000000000002  3.2400000000000002 17.7199999999999989   T   T   T
  4.8600000000000003  4.8600000000000003 19.3399999999999999   T   T   T
