Mo P  Mo P  Mo P  Mo P 
 1.0000000000000000
     6.4800000000000004    0.0000000000000000    0.0000000000000000
     0.0000000000000000    6.4800000000000004    0.0000000000000000
     0.0000000000000000    0.0000000000000000   17.6200000000000010
 Mo  P   Mo  P   Mo  P   Mo  P  
   1   1   1   1   1   1   1   1
Selective dynamics
Cartesian
  0.0000000000000000  0.0000000000000000  8.0000000000000000   F   F   F
  1.6200000000000001  1.6200000000000001  9.6200000000000010   T   T   T
  0.0000000000000000  3.2400000000000002  8.0000000000000000   F   F   F
  1.6200000000000001  4.8600000000000003  9.6200000000000010   T   T   T
  3.2400000000000002  0.0000000000000000  8.0000000000000000   F   F   F
  4.8600000000000003  1.6200000000000001  9.6200000000000010   T   T   T
  3.2400000000000002  3.2400000000000002  8.0000000000000000   F   F   F
  4.8600000000000003  4.8600000000000003  9.6200000000000010   T   T   T
