Ni Mo N  Mo N  Mo N  Mo N  Ni
 1.0000000000000000
     7.4670476093299420    0.0000000000000000    0.0000000000000000
     3.7335238046649710    6.4666529209475900    0.0000000000000000
     0.0000000000000000    0.0000000000000000   26.3768188426424501
 Ni  Mo  N   Mo  N   Mo  N   Mo  N   Ni 
  36   2   1   2   1   2   1   2   1   4
Selective dynamics
Cartesian
  0.0000000000000000  0.0000000000000000  8.0000000000000000   F   F   F
  2.4890158697766473  0.0000000000000000  8.0000000000000000   F   F   F
  4.9780317395532947  0.0000000000000000  8.0000000000000000   F   F   F
  1.2445079348883237  2.1555509736491967  8.0000000000000000   F   F   F
  3.7335238046649710  2.1555509736491967  8.0000000000000000   F   F   F
  6.2225396744416184  2.1555509736491967  8.0000000000000000   F   F   F
  2.4890158697766473  4.3111019472983934  8.0000000000000000   F   F   F
  4.9780317395532947  4.3111019472983934  8.0000000000000000   F   F   F
  7.4670476093299420  4.3111019472983934  8.0000000000000000   F   F   F
  1.2445079348883237  0.7185169912163989 10.0322729475474830   F   F   F
  3.7335238046649706  0.7185169912163989 10.0322729475474830   F   F   F
  6.2225396744416193  0.7185169912163989 10.0322729475474830   F   F   F
  2.4890158697766473  2.8740679648655956 10.0322729475474830   F   F   F
  4.9780317395532947  2.8740679648655956 10.0322729475474830   F   F   F
  7.4670476093299429  2.8740679648655956 10.0322729475474830   F   F   F
  3.7335238046649710  5.0296189385147922 10.0322729475474830   F   F   F
  6.2225396744416184  5.0296189385147922 10.0322729475474830   F   F   F
  8.7115555442182657  5.0296189385147922 10.0322729475474830   F   F   F
  0.0000000000000000  1.4370339824327978 12.0645458950949660   T   T   T
  2.4890158697766473  1.4370339824327978 12.0645458950949660   T   T   T
  4.9780317395532947  1.4370339824327978 12.0645458950949660   T   T   T
  1.2445079348883237  3.5925849560819940 12.0645458950949660   T   T   T
  3.7335238046649710  3.5925849560819940 12.0645458950949660   T   T   T
  6.2225396744416184  3.5925849560819940 12.0645458950949660   T   T   T
  2.4890158697766473  5.7481359297311911 12.0645458950949660   T   T   T
  4.9780317395532947  5.7481359297311911 12.0645458950949660   T   T   T
  7.4670476093299420  5.7481359297311911 12.0645458950949660   T   T   T
  0.0000000000000000  0.0000000000000000 14.0968188426424490   T   T   T
  2.4890158697766473  0.0000000000000000 14.0968188426424490   T   T   T
  4.9780317395532947  0.0000000000000000 14.0968188426424490   T   T   T
  1.2445079348883237  2.1555509736491967 14.0968188426424490   T   T   T
  3.7335238046649710  2.1555509736491967 14.0968188426424490   T   T   T
  6.2225396744416184  2.1555509736491967 14.0968188426424490   T   T   T
  2.4890158697766473  4.3111019472983934 14.0968188426424490   T   T   T
  4.9780317395532947  4.3111019472983934 14.0968188426424490   T   T   T
  7.4670476093299420  4.3111019472983934 14.0968188426424490   T   T   T
  0.0000000000000000  0.0000000000000000 16.2968188426424483   T   T   T
  2.0800000000000001  2.0800000000000001 18.3768188426424501   T   T   T
  2.0800000000000001  2.0800000000000001 16.2968188426424483   T   T   T
  0.0000000000000000  4.1600000000000001 16.2968188426424483   T   T   T
  2.0800000000000001  6.2400000000000002 18.3768188426424501   T   T   T
  2.0800000000000001  6.2400000000000002 16.2968188426424483   T   T   T
  4.1600000000000001  0.0000000000000000 16.2968188426424483   T   T   T
  6.2400000000000002  2.0800000000000001 18.3768188426424501   T   T   T
  6.2400000000000002  2.0800000000000001 16.2968188426424483   T   T   T
  4.1600000000000001  4.1600000000000001 16.2968188426424483   T   T   T
  6.2400000000000002  6.2400000000000002 18.3768188426424501   T   T   T
  6.2400000000000002  6.2400000000000002 16.2968188426424483   T   T   T
  2.7001547579569571  1.6874957044627885 20.1768188426424508   T   T   T
  2.7001547579569571  4.0874957044627882 20.1768188426424508   T   T   T
  5.1001547579569566  1.6874957044627885 20.1768188426424508   T   T   T
  5.1001547579569566  4.0874957044627882 20.1768188426424508   T   T   T
