Mo C  Mo C  Mo C  Mo C  Mo C  Mo C  Mo C  Mo C  Mo C  Mo C  Mo C  Mo C 
 1.0000000000000000
    43.2090000000000032    0.0000000000000000    0.0000000000000000
     0.0000000000000000   12.0739999999999998    0.0000000000000000
     0.0000000000000000    0.0000000000000000   20.3713599999999957
 Mo  C   Mo  C   Mo  C   Mo  C   Mo  C   Mo  C   Mo  C   Mo  C   Mo  C   Mo  C   Mo  C   Mo  C  
   4   2   4   2   4   2   4   2   4   2   4   2   4   2   4   2   4   2   4   2   4   2   4   2
Selective dynamics
Cartesian
  9.1830000000000016  0.7244400000000000  7.9999999999999982   F   F   F
 11.5490000000000030  5.3125600000000004 12.3713599999999992   T   T   T
  9.1830000000000016  3.7429399999999999  9.7693599999999989   F   F   F
 11.5490000000000030  2.2940600000000000 10.6019999999999985   T   T   T
  8.0000000000000018  2.1733199999999999  8.8846799999999977   F   F   F
 10.3660000000000014  3.8636800000000000 11.4866799999999980   T   T   T
  9.1830000000000016  6.7614400000000003  7.9999999999999982   F   F   F
 11.5490000000000030 11.3495600000000003 12.3713599999999992   T   T   T
  9.1830000000000016  9.7799399999999999  9.7693599999999989   F   F   F
 11.5490000000000030  8.3310600000000008 10.6019999999999985   T   T   T
  8.0000000000000018  8.2103199999999994  8.8846799999999977   F   F   F
 10.3660000000000014  9.9006799999999995 11.4866799999999980   T   T   T
 13.9150000000000027  0.7244400000000000  7.9999999999999982   F   F   F
 16.2810000000000024  5.3125600000000004 12.3713599999999992   T   T   T
 13.9150000000000027  3.7429399999999999  9.7693599999999989   F   F   F
 16.2810000000000024  2.2940600000000000 10.6019999999999985   T   T   T
 12.7320000000000029  2.1733199999999999  8.8846799999999977   F   F   F
 15.0980000000000025  3.8636800000000000 11.4866799999999980   T   T   T
 13.9150000000000027  6.7614400000000003  7.9999999999999982   F   F   F
 16.2810000000000024 11.3495600000000003 12.3713599999999992   T   T   T
 13.9150000000000027  9.7799399999999999  9.7693599999999989   F   F   F
 16.2810000000000024  8.3310600000000008 10.6019999999999985   T   T   T
 12.7320000000000029  8.2103199999999994  8.8846799999999977   F   F   F
 15.0980000000000025  9.9006799999999995 11.4866799999999980   T   T   T
 18.6470000000000020  0.7244400000000000  7.9999999999999982   F   F   F
 21.0130000000000052  5.3125600000000004 12.3713599999999992   T   T   T
 18.6470000000000020  3.7429399999999999  9.7693599999999989   F   F   F
 21.0130000000000052  2.2940600000000000 10.6019999999999985   T   T   T
 17.4640000000000022  2.1733199999999999  8.8846799999999977   F   F   F
 19.8300000000000018  3.8636800000000000 11.4866799999999980   T   T   T
 18.6470000000000020  6.7614400000000003  7.9999999999999982   F   F   F
 21.0130000000000052 11.3495600000000003 12.3713599999999992   T   T   T
 18.6470000000000020  9.7799399999999999  9.7693599999999989   F   F   F
 21.0130000000000052  8.3310600000000008 10.6019999999999985   T   T   T
 17.4640000000000022  8.2103199999999994  8.8846799999999977   F   F   F
 19.8300000000000018  9.9006799999999995 11.4866799999999980   T   T   T
 23.3790000000000049  0.7244400000000000  7.9999999999999982   F   F   F
 25.7450000000000045  5.3125600000000004 12.3713599999999992   T   T   T
 23.3790000000000049  3.7429399999999999  9.7693599999999989   F   F   F
 25.7450000000000045  2.2940600000000000 10.6019999999999985   T   T   T
 22.1960000000000051  2.1733199999999999  8.8846799999999977   F   F   F
 24.5620000000000047  3.8636800000000000 11.4866799999999980   T   T   T
 23.3790000000000049  6.7614400000000003  7.9999999999999982   F   F   F
 25.7450000000000045 11.3495600000000003 12.3713599999999992   T   T   T
 23.3790000000000049  9.7799399999999999  9.7693599999999989   F   F   F
 25.7450000000000045  8.3310600000000008 10.6019999999999985   T   T   T
 22.1960000000000051  8.2103199999999994  8.8846799999999977   F   F   F
 24.5620000000000047  9.9006799999999995 11.4866799999999980   T   T   T
 28.1110000000000042  0.7244400000000000  7.9999999999999982   F   F   F
 30.4770000000000039  5.3125600000000004 12.3713599999999992   T   T   T
 28.1110000000000042  3.7429399999999999  9.7693599999999989   F   F   F
 30.4770000000000039  2.2940600000000000 10.6019999999999985   T   T   T
 26.9280000000000044  2.1733199999999999  8.8846799999999977   F   F   F
 29.2940000000000040  3.8636800000000000 11.4866799999999980   T   T   T
 28.1110000000000042  6.7614400000000003  7.9999999999999982   F   F   F
 30.4770000000000039 11.3495600000000003 12.3713599999999992   T   T   T
 28.1110000000000042  9.7799399999999999  9.7693599999999989   F   F   F
 30.4770000000000039  8.3310600000000008 10.6019999999999985   T   T   T
 26.9280000000000044  8.2103199999999994  8.8846799999999977   F   F   F
 29.2940000000000040  9.9006799999999995 11.4866799999999980   T   T   T
 32.8430000000000035  0.7244400000000000  7.9999999999999982   F   F   F
 35.2090000000000032  5.3125600000000004 12.3713599999999992   T   T   T
 32.8430000000000035  3.7429399999999999  9.7693599999999989   F   F   F
 35.2090000000000032  2.2940600000000000 10.6019999999999985   T   T   T
 31.6600000000000037  2.1733199999999999  8.8846799999999977   F   F   F
 34.0260000000000034  3.8636800000000000 11.4866799999999980   T   T   T
 32.8430000000000035  6.7614400000000003  7.9999999999999982   F   F   F
 35.2090000000000032 11.3495600000000003 12.3713599999999992   T   T   T
 32.8430000000000035  9.7799399999999999  9.7693599999999989   F   F   F
 35.2090000000000032  8.3310600000000008 10.6019999999999985   T   T   T
 31.6600000000000037  8.2103199999999994  8.8846799999999977   F   F   F
 34.0260000000000034  9.9006799999999995 11.4866799999999980   T   T   T
