Mo C  Mo C  Mo C  Mo C  Mo C  Mo C  Mo C  Mo C  Mo C  Mo C  Mo C  Mo C  Mo C  Mo C  Mo C  Mo C  Mo C  Mo C  Mo C  Mo C  Mo C  Mo C  Mo C  Mo C  Mo C  Mo C  Mo C  Mo C  Mo C  Mo C 
 1.0000000000000000
    62.1369999999999933    0.0000000000000000    0.0000000000000000
     0.0000000000000000   18.1110000000000007    0.0000000000000000
     0.0000000000000000    0.0000000000000000   20.3713599999999957
 Mo  C   Mo  C   Mo  C   Mo  C   Mo  C   Mo  C   Mo  C   Mo  C   Mo  C   Mo  C   Mo  C   Mo  C   Mo  C   Mo  C   Mo  C   Mo  C   Mo  C   Mo  C   Mo  C   Mo  C   Mo  C   Mo  C   Mo  C   Mo  C   Mo  C   Mo  C   Mo  C   Mo  C   Mo  C   Mo  C  
   4   2   4   2   4   2   4   2   4   2   4   2   4   2   4   2   4   2   4   2   4   2   4   2   4   2   4   2   4   2   4   2   4   2   4   2   4   2   4   2   4   2   4   2   4   2   4   2   4   2   4   2   4   2   2   2   2   2   2   2
Selective dynamics
Cartesian
  9.1829999999999998  0.7244400000000000  7.9999999999999982   F   F   F
 11.5489999999999995  5.3125600000000004 12.3713599999999992   T   T   T
  9.1829999999999998  3.7429399999999999  9.7693599999999989   F   F   F
 11.5489999999999995  2.2940600000000000 10.6019999999999985   T   T   T
  8.0000000000000000  2.1733199999999999  8.8846799999999977   F   F   F
 10.3659999999999997  3.8636800000000000 11.4866799999999980   T   T   T
  9.1829999999999998  6.7614400000000003  7.9999999999999982   F   F   F
 11.5489999999999995 11.3495600000000003 12.3713599999999992   T   T   T
  9.1829999999999998  9.7799399999999999  9.7693599999999989   F   F   F
 11.5489999999999995  8.3310600000000008 10.6019999999999985   T   T   T
  8.0000000000000000  8.2103199999999994  8.8846799999999977   F   F   F
 10.3659999999999997  9.9006799999999995 11.4866799999999980   T   T   T
  9.1829999999999998 12.7984399999999994  7.9999999999999982   F   F   F
 11.5489999999999995 17.3865599999999993 12.3713599999999992   T   T   T
  9.1829999999999998 15.8169399999999989  9.7693599999999989   F   F   F
 11.5489999999999995 14.3680599999999998 10.6019999999999985   T   T   T
  8.0000000000000000 14.2473200000000002  8.8846799999999977   F   F   F
 10.3659999999999997 15.9376800000000003 11.4866799999999980   T   T   T
 13.9149999999999991  0.7244400000000000  7.9999999999999982   F   F   F
 16.2809999999999988  5.3125600000000004 12.3713599999999992   T   T   T
 13.9149999999999991  3.7429399999999999  9.7693599999999989   F   F   F
 16.2809999999999988  2.2940600000000000 10.6019999999999985   T   T   T
 12.7319999999999993  2.1733199999999999  8.8846799999999977   F   F   F
 15.0980000000000008  3.8636800000000000 11.4866799999999980   T   T   T
 13.9149999999999991  6.7614400000000003  7.9999999999999982   F   F   F
 16.2809999999999988 11.3495600000000003 12.3713599999999992   T   T   T
 13.9149999999999991  9.7799399999999999  9.7693599999999989   F   F   F
 16.2809999999999988  8.3310600000000008 10.6019999999999985   T   T   T
 12.7319999999999993  8.2103199999999994  8.8846799999999977   F   F   F
 15.0980000000000008  9.9006799999999995 11.4866799999999980   T   T   T
 13.9149999999999991 12.7984399999999994  7.9999999999999982   F   F   F
 16.2809999999999988 17.3865599999999993 12.3713599999999992   T   T   T
 13.9149999999999991 15.8169399999999989  9.7693599999999989   F   F   F
 16.2809999999999988 14.3680599999999998 10.6019999999999985   T   T   T
 12.7319999999999993 14.2473200000000002  8.8846799999999977   F   F   F
 15.0980000000000008 15.9376800000000003 11.4866799999999980   T   T   T
 18.6469999999999985  0.7244400000000000  7.9999999999999982   F   F   F
 21.0130000000000017  5.3125600000000004 12.3713599999999992   T   T   T
 18.6469999999999985  3.7429399999999999  9.7693599999999989   F   F   F
 21.0130000000000017  2.2940600000000000 10.6019999999999985   T   T   T
 17.4639999999999986  2.1733199999999999  8.8846799999999977   F   F   F
 19.8299999999999983  3.8636800000000000 11.4866799999999980   T   T   T
 18.6469999999999985  6.7614400000000003  7.9999999999999982   F   F   F
 21.0130000000000017 11.3495600000000003 12.3713599999999992   T   T   T
 18.6469999999999985  9.7799399999999999  9.7693599999999989   F   F   F
 21.0130000000000017  8.3310600000000008 10.6019999999999985   T   T   T
 17.4639999999999986  8.2103199999999994  8.8846799999999977   F   F   F
 19.8299999999999983  9.9006799999999995 11.4866799999999980   T   T   T
 18.6469999999999985 12.7984399999999994  7.9999999999999982   F   F   F
 21.0130000000000017 17.3865599999999993 12.3713599999999992   T   T   T
 18.6469999999999985 15.8169399999999989  9.7693599999999989   F   F   F
 21.0130000000000017 14.3680599999999998 10.6019999999999985   T   T   T
 17.4639999999999986 14.2473200000000002  8.8846799999999977   F   F   F
 19.8299999999999983 15.9376800000000003 11.4866799999999980   T   T   T
 23.3790000000000013  0.7244400000000000  7.9999999999999982   F   F   F
 25.7450000000000010  5.3125600000000004 12.3713599999999992   T   T   T
 23.3790000000000013  3.7429399999999999  9.7693599999999989   F   F   F
 25.7450000000000010  2.2940600000000000 10.6019999999999985   T   T   T
 22.1960000000000015  2.1733199999999999  8.8846799999999977   F   F   F
 24.5620000000000012  3.8636800000000000 11.4866799999999980   T   T   T
 23.3790000000000013  6.7614400000000003  7.9999999999999982   F   F   F
 25.7450000000000010 11.3495600000000003 12.3713599999999992   T   T   T
 23.3790000000000013  9.7799399999999999  9.7693599999999989   F   F   F
 25.7450000000000010  8.3310600000000008 10.6019999999999985   T   T   T
 22.1960000000000015  8.2103199999999994  8.8846799999999977   F   F   F
 24.5620000000000012  9.9006799999999995 11.4866799999999980   T   T   T
 23.3790000000000013 12.7984399999999994  7.9999999999999982   F   F   F
 25.7450000000000010 17.3865599999999993 12.3713599999999992   T   T   T
 23.3790000000000013 15.8169399999999989  9.7693599999999989   F   F   F
 25.7450000000000010 14.3680599999999998 10.6019999999999985   T   T   T
 22.1960000000000015 14.2473200000000002  8.8846799999999977   F   F   F
 24.5620000000000012 15.9376800000000003 11.4866799999999980   T   T   T
 28.1110000000000007  0.7244400000000000  7.9999999999999982   F   F   F
 30.4770000000000003  5.3125600000000004 12.3713599999999992   T   T   T
 28.1110000000000007  3.7429399999999999  9.7693599999999989   F   F   F
 30.4770000000000003  2.2940600000000000 10.6019999999999985   T   T   T
 26.9280000000000008  2.1733199999999999  8.8846799999999977   F   F   F
 29.2940000000000005  3.8636800000000000 11.4866799999999980   T   T   T
 28.1110000000000007  6.7614400000000003  7.9999999999999982   F   F   F
 30.4770000000000003 11.3495600000000003 12.3713599999999992   T   T   T
 28.1110000000000007  9.7799399999999999  9.7693599999999989   F   F   F
 30.4770000000000003  8.3310600000000008 10.6019999999999985   T   T   T
 26.9280000000000008  8.2103199999999994  8.8846799999999977   F   F   F
 29.2940000000000005  9.9006799999999995 11.4866799999999980   T   T   T
 28.1110000000000007 12.7984399999999994  7.9999999999999982   F   F   F
 30.4770000000000003 17.3865599999999993 12.3713599999999992   T   T   T
 28.1110000000000007 15.8169399999999989  9.7693599999999989   F   F   F
 30.4770000000000003 14.3680599999999998 10.6019999999999985   T   T   T
 26.9280000000000008 14.2473200000000002  8.8846799999999977   F   F   F
 29.2940000000000005 15.9376800000000003 11.4866799999999980   T   T   T
 32.8430000000000035  0.7244400000000000  7.9999999999999982   F   F   F
 35.2090000000000032  5.3125600000000004 12.3713599999999992   T   T   T
 32.8430000000000035  3.7429399999999999  9.7693599999999989   F   F   F
 35.2090000000000032  2.2940600000000000 10.6019999999999985   T   T   T
 31.6600000000000001  2.1733199999999999  8.8846799999999977   F   F   F
 34.0259999999999962  3.8636800000000000 11.4866799999999980   T   T   T
 32.8430000000000035  6.7614400000000003  7.9999999999999982   F   F   F
 35.2090000000000032 11.3495600000000003 12.3713599999999992   T   T   T
 32.8430000000000035  9.7799399999999999  9.7693599999999989   F   F   F
 35.2090000000000032  8.3310600000000008 10.6019999999999985   T   T   T
 31.6600000000000001  8.2103199999999994  8.8846799999999977   F   F   F
 34.0259999999999962  9.9006799999999995 11.4866799999999980   T   T   T
 32.8430000000000035 12.7984399999999994  7.9999999999999982   F   F   F
 35.2090000000000032 17.3865599999999993 12.3713599999999992   T   T   T
 32.8430000000000035 15.8169399999999989  9.7693599999999989   F   F   F
 35.2090000000000032 14.3680599999999998 10.6019999999999985   T   T   T
 31.6600000000000001 14.2473200000000002  8.8846799999999977   F   F   F
 34.0259999999999962 15.9376800000000003 11.4866799999999980   T   T   T
 37.5750000000000028  0.7244400000000000  7.9999999999999982   F   F   F
 39.9410000000000025  5.3125600000000004 12.3713599999999992   T   T   T
 37.5750000000000028  3.7429399999999999  9.7693599999999989   F   F   F
 39.9410000000000025  2.2940600000000000 10.6019999999999985   T   T   T
 36.3920000000000030  2.1733199999999999  8.8846799999999977   F   F   F
 38.7580000000000027  3.8636800000000000 11.4866799999999980   T   T   T
 37.5750000000000028  6.7614400000000003  7.9999999999999982   F   F   F
 39.9410000000000025 11.3495600000000003 12.3713599999999992   T   T   T
 37.5750000000000028  9.7799399999999999  9.7693599999999989   F   F   F
 39.9410000000000025  8.3310600000000008 10.6019999999999985   T   T   T
 36.3920000000000030  8.2103199999999994  8.8846799999999977   F   F   F
 38.7580000000000027  9.9006799999999995 11.4866799999999980   T   T   T
 37.5750000000000028 12.7984399999999994  7.9999999999999982   F   F   F
 39.9410000000000025 17.3865599999999993 12.3713599999999992   T   T   T
 37.5750000000000028 15.8169399999999989  9.7693599999999989   F   F   F
 39.9410000000000025 14.3680599999999998 10.6019999999999985   T   T   T
 36.3920000000000030 14.2473200000000002  8.8846799999999977   F   F   F
 38.7580000000000027 15.9376800000000003 11.4866799999999980   T   T   T
 42.3070000000000022  0.7244400000000000  7.9999999999999982   F   F   F
 44.6730000000000018  5.3125600000000004 12.3713599999999992   T   T   T
 42.3070000000000022  3.7429399999999999  9.7693599999999989   F   F   F
 44.6730000000000018  2.2940600000000000 10.6019999999999985   T   T   T
 41.1240000000000023  2.1733199999999999  8.8846799999999977   F   F   F
 43.4900000000000020  3.8636800000000000 11.4866799999999980   T   T   T
 42.3070000000000022  6.7614400000000003  7.9999999999999982   F   F   F
 44.6730000000000018 11.3495600000000003 12.3713599999999992   T   T   T
 42.3070000000000022  9.7799399999999999  9.7693599999999989   F   F   F
 44.6730000000000018  8.3310600000000008 10.6019999999999985   T   T   T
 41.1240000000000023  8.2103199999999994  8.8846799999999977   F   F   F
 43.4900000000000020  9.9006799999999995 11.4866799999999980   T   T   T
 42.3070000000000022 12.7984399999999994  7.9999999999999982   F   F   F
 44.6730000000000018 17.3865599999999993 12.3713599999999992   T   T   T
 42.3070000000000022 15.8169399999999989  9.7693599999999989   F   F   F
 44.6730000000000018 14.3680599999999998 10.6019999999999985   T   T   T
 41.1240000000000023 14.2473200000000002  8.8846799999999977   F   F   F
 43.4900000000000020 15.9376800000000003 11.4866799999999980   T   T   T
 47.0390000000000015  0.7244400000000000  7.9999999999999982   F   F   F
 49.4050000000000011  5.3125600000000004 12.3713599999999992   T   T   T
 47.0390000000000015  3.7429399999999999  9.7693599999999989   F   F   F
 49.4050000000000011  2.2940600000000000 10.6019999999999985   T   T   T
 45.8560000000000016  2.1733199999999999  8.8846799999999977   F   F   F
 48.2220000000000013  3.8636800000000000 11.4866799999999980   T   T   T
 47.0390000000000015  6.7614400000000003  7.9999999999999982   F   F   F
 49.4050000000000011 11.3495600000000003 12.3713599999999992   T   T   T
 47.0390000000000015  9.7799399999999999  9.7693599999999989   F   F   F
 49.4050000000000011  8.3310600000000008 10.6019999999999985   T   T   T
 45.8560000000000016  8.2103199999999994  8.8846799999999977   F   F   F
 48.2220000000000013  9.9006799999999995 11.4866799999999980   T   T   T
 47.0390000000000015 12.7984399999999994  7.9999999999999982   F   F   F
 49.4050000000000011 17.3865599999999993 12.3713599999999992   T   T   T
 47.0390000000000015 15.8169399999999989  9.7693599999999989   F   F   F
 49.4050000000000011 14.3680599999999998 10.6019999999999985   T   T   T
 45.8560000000000016 14.2473200000000002  8.8846799999999977   F   F   F
 48.2220000000000013 15.9376800000000003 11.4866799999999980   T   T   T
 51.7710000000000008  0.7244400000000000  7.9999999999999982   F   F   F
 51.7710000000000008  3.7429399999999999  9.7693599999999989   F   F   F
 50.5880000000000010  2.1733199999999999  8.8846799999999977   F   F   F
 52.9540000000000006  3.8636800000000000 11.4866799999999980   T   T   T
 51.7710000000000008  6.7614400000000003  7.9999999999999982   F   F   F
 51.7710000000000008  9.7799399999999999  9.7693599999999989   F   F   F
 50.5880000000000010  8.2103199999999994  8.8846799999999977   F   F   F
 52.9540000000000006  9.9006799999999995 11.4866799999999980   T   T   T
 51.7710000000000008 12.7984399999999994  7.9999999999999982   F   F   F
 51.7710000000000008 15.8169399999999989  9.7693599999999989   F   F   F
 50.5880000000000010 14.2473200000000002  8.8846799999999977   F   F   F
 52.9540000000000006 15.9376800000000003 11.4866799999999980   T   T   T
