SYSTEM = Mo2N H adsorption
PREC = Accurate
ENCUT = 400
ISMEAR = 0
SIGMA = 0.05
IBRION = 2
NSW = 100
ISIF = 2
LREAL = False
ALGO = Normal
NELM = 100
EDIFF = 1e-05
EDIFFG = -0.01
LWAVE = False
LCHARG = False
