O  Ti C  Ti C  Ti O  Ti C  Ti C  Ti O  Ti C  Ti C  Ti O  Ti C  Ti C  Ti O  Ti C  Ti C  Ti O  Ti C  Ti C  Ti O  Ti C  Ti C  Ti O  Ti C  Ti C  Ti O  Ti C  Ti C  Ti O  Ti C  Ti C  Ti O  Ti C  Ti C  Ti O  Ti C  Ti C  Ti O  Ti C  Ti C  Ti O  Ti C  Ti C  Ti O  Ti C  Ti C  Ti O  Ti C  Ti C  Ti O 
 1.0000000000000000
    10.6382560600880449    0.0000000000000000    0.0000000000000000
     0.0000000000000000   40.0000000000000000    0.0000000000000000
     0.0000000000000000    0.0000000000000000   22.1419999999999995
 O   Ti  C   Ti  C   Ti  O   Ti  C   Ti  C   Ti  O   Ti  C   Ti  C   Ti  O   Ti  C   Ti  C   Ti  O   Ti  C   Ti  C   Ti  O   Ti  C   Ti  C   Ti  O   Ti  C   Ti  C   Ti  O   Ti  C   Ti  C   Ti  O   Ti  C   Ti  C   Ti  O   Ti  C   Ti  C   Ti  O   Ti  C   Ti  C   Ti  O   Ti  C   Ti  C   Ti  O   Ti  C   Ti  C   Ti  O   Ti  C   Ti  C   Ti  O   Ti  C   Ti  C   Ti  O   Ti  C   Ti  C   Ti  O  
   1   1   1   1   1   1   2   1   1   1   1   1   2   1   1   1   1   1   2   1   1   1   1   1   2   1   1   1   1   1   2   1   1   1   1   1   2   1   1   1   1   1   2   1   1   1   1   1   2   1   1   1   1   1   2   1   1   1   1   1   2   1   1   1   1   1   2   1   1   1   1   1   2   1   1   1   1   1   2   1   1   1   1   1   2   1   1   1   1   1   2   1   1   1   1   1   1
Selective dynamics
Cartesian
  1.7730426766813410 12.9999999999999982  8.0000000000000000   F   F   F
  3.5460853533626828 12.0000000000000018 14.1419999999999995   T   T   T
  0.0000000000000000 11.0000000000000000  8.0000000000000000   F   F   F
  1.7730426766813410 10.0000000000000000  8.0000000000000000   F   F   F
  3.5460853533626828  9.0000000000000000 14.1419999999999995   T   T   T
  0.0000000000000000  7.9999999999999982  8.0000000000000000   F   F   F
  1.7730426766813410  7.0000000000000000  8.0000000000000000   F   F   F
  4.4326066917033522 12.9999999999999982  9.5354999999999990   F   F   F
  0.8865213383406708 12.0000000000000018  9.5354999999999990   F   F   F
  2.6595640150220112 11.0000000000000000  9.5354999999999990   F   F   F
  4.4326066917033522 10.0000000000000000  9.5354999999999990   F   F   F
  0.8865213383406708  9.0000000000000000  9.5354999999999990   F   F   F
  2.6595640150220112  7.9999999999999982  9.5354999999999990   F   F   F
  4.4326066917033522  7.0000000000000000  9.5354999999999990   F   F   F
  1.7730426766813416 12.9999999999999982 11.0709999999999997   T   T   T
  3.5460853533626819 12.0000000000000018 11.0709999999999997   T   T   T
  0.0000000000000000 11.0000000000000000 11.0709999999999997   T   T   T
  1.7730426766813416 10.0000000000000000 11.0709999999999997   T   T   T
  3.5460853533626819  9.0000000000000000 11.0709999999999997   T   T   T
  0.0000000000000000  7.9999999999999982 11.0709999999999997   T   T   T
  1.7730426766813416  7.0000000000000000 11.0709999999999997   T   T   T
  4.4326066917033531 12.9999999999999982 12.6065000000000005   T   T   T
  0.8865213383406720 12.0000000000000018 12.6064999999999987   T   T   T
  2.6595640150220112 11.0000000000000000 12.6065000000000005   T   T   T
  4.4326066917033531 10.0000000000000000 12.6065000000000005   T   T   T
  0.8865213383406720  9.0000000000000000 12.6064999999999987   T   T   T
  2.6595640150220112  7.9999999999999982 12.6065000000000005   T   T   T
  4.4326066917033531  7.0000000000000000 12.6065000000000005   T   T   T
  1.7730426766813410 33.0000000000000000  8.0000000000000000   F   F   F
  3.5460853533626828 32.0000000000000000 14.1419999999999995   T   T   T
  0.0000000000000000 31.0000000000000000  8.0000000000000000   F   F   F
  1.7730426766813410 30.0000000000000000  8.0000000000000000   F   F   F
  3.5460853533626828 29.0000000000000000 14.1419999999999995   T   T   T
  0.0000000000000000 28.0000000000000000  8.0000000000000000   F   F   F
  1.7730426766813410 27.0000000000000000  8.0000000000000000   F   F   F
  4.4326066917033522 33.0000000000000000  9.5354999999999990   F   F   F
  0.8865213383406708 32.0000000000000000  9.5354999999999990   F   F   F
  2.6595640150220112 31.0000000000000000  9.5354999999999990   F   F   F
  4.4326066917033522 30.0000000000000000  9.5354999999999990   F   F   F
  0.8865213383406708 29.0000000000000000  9.5354999999999990   F   F   F
  2.6595640150220112 28.0000000000000000  9.5354999999999990   F   F   F
  4.4326066917033522 27.0000000000000000  9.5354999999999990   F   F   F
  1.7730426766813416 33.0000000000000000 11.0709999999999997   T   T   T
  3.5460853533626819 32.0000000000000000 11.0709999999999997   T   T   T
  0.0000000000000000 31.0000000000000000 11.0709999999999997   T   T   T
  1.7730426766813416 30.0000000000000000 11.0709999999999997   T   T   T
  3.5460853533626819 29.0000000000000000 11.0709999999999997   T   T   T
  0.0000000000000000 28.0000000000000000 11.0709999999999997   T   T   T
  1.7730426766813416 27.0000000000000000 11.0709999999999997   T   T   T
  4.4326066917033531 33.0000000000000000 12.6065000000000005   T   T   T
  0.8865213383406720 32.0000000000000000 12.6064999999999987   T   T   T
  2.6595640150220112 31.0000000000000000 12.6065000000000005   T   T   T
  4.4326066917033531 30.0000000000000000 12.6065000000000005   T   T   T
  0.8865213383406720 29.0000000000000000 12.6064999999999987   T   T   T
  2.6595640150220112 28.0000000000000000 12.6065000000000005   T   T   T
  4.4326066917033531 27.0000000000000000 12.6065000000000005   T   T   T
  7.0921707067253639 12.9999999999999982  8.0000000000000000   F   F   F
  8.8652133834067044 12.0000000000000018 14.1419999999999995   T   T   T
  5.3191280300440225 11.0000000000000000  8.0000000000000000   F   F   F
  7.0921707067253639 10.0000000000000000  8.0000000000000000   F   F   F
  8.8652133834067044  9.0000000000000000 14.1419999999999995   T   T   T
  5.3191280300440225  7.9999999999999982  8.0000000000000000   F   F   F
  7.0921707067253639  7.0000000000000000  8.0000000000000000   F   F   F
  9.7517347217473755 12.9999999999999982  9.5354999999999990   F   F   F
  6.2056493683846936 12.0000000000000018  9.5354999999999990   F   F   F
  7.9786920450660332 11.0000000000000000  9.5354999999999990   F   F   F
  9.7517347217473755 10.0000000000000000  9.5354999999999990   F   F   F
  6.2056493683846936  9.0000000000000000  9.5354999999999990   F   F   F
  7.9786920450660332  7.9999999999999982  9.5354999999999990   F   F   F
  9.7517347217473755  7.0000000000000000  9.5354999999999990   F   F   F
  7.0921707067253639 12.9999999999999982 11.0709999999999997   T   T   T
  8.8652133834067044 12.0000000000000018 11.0709999999999997   T   T   T
  5.3191280300440225 11.0000000000000000 11.0709999999999997   T   T   T
  7.0921707067253639 10.0000000000000000 11.0709999999999997   T   T   T
  8.8652133834067044  9.0000000000000000 11.0709999999999997   T   T   T
  5.3191280300440225  7.9999999999999982 11.0709999999999997   T   T   T
  7.0921707067253639  7.0000000000000000 11.0709999999999997   T   T   T
  9.7517347217473755 12.9999999999999982 12.6065000000000005   T   T   T
  6.2056493683846945 12.0000000000000018 12.6064999999999987   T   T   T
  7.9786920450660332 11.0000000000000000 12.6065000000000005   T   T   T
  9.7517347217473755 10.0000000000000000 12.6065000000000005   T   T   T
  6.2056493683846945  9.0000000000000000 12.6064999999999987   T   T   T
  7.9786920450660332  7.9999999999999982 12.6065000000000005   T   T   T
  9.7517347217473755  7.0000000000000000 12.6065000000000005   T   T   T
  7.0921707067253639 33.0000000000000000  8.0000000000000000   F   F   F
  8.8652133834067044 32.0000000000000000 14.1419999999999995   T   T   T
  5.3191280300440225 31.0000000000000000  8.0000000000000000   F   F   F
  7.0921707067253639 30.0000000000000000  8.0000000000000000   F   F   F
  8.8652133834067044 29.0000000000000000 14.1419999999999995   T   T   T
  5.3191280300440225 28.0000000000000000  8.0000000000000000   F   F   F
  7.0921707067253639 27.0000000000000000  8.0000000000000000   F   F   F
  9.7517347217473755 33.0000000000000000  9.5354999999999990   F   F   F
  6.2056493683846936 32.0000000000000000  9.5354999999999990   F   F   F
  7.9786920450660332 31.0000000000000000  9.5354999999999990   F   F   F
  9.7517347217473755 30.0000000000000000  9.5354999999999990   F   F   F
  6.2056493683846936 29.0000000000000000  9.5354999999999990   F   F   F
  7.9786920450660332 28.0000000000000000  9.5354999999999990   F   F   F
  9.7517347217473755 27.0000000000000000  9.5354999999999990   F   F   F
  7.0921707067253639 33.0000000000000000 11.0709999999999997   T   T   T
  8.8652133834067044 32.0000000000000000 11.0709999999999997   T   T   T
  5.3191280300440225 31.0000000000000000 11.0709999999999997   T   T   T
  7.0921707067253639 30.0000000000000000 11.0709999999999997   T   T   T
  8.8652133834067044 29.0000000000000000 11.0709999999999997   T   T   T
  5.3191280300440225 28.0000000000000000 11.0709999999999997   T   T   T
  7.0921707067253639 27.0000000000000000 11.0709999999999997   T   T   T
  9.7517347217473755 33.0000000000000000 12.6065000000000005   T   T   T
  6.2056493683846945 32.0000000000000000 12.6064999999999987   T   T   T
  7.9786920450660332 31.0000000000000000 12.6065000000000005   T   T   T
  9.7517347217473755 30.0000000000000000 12.6065000000000005   T   T   T
  6.2056493683846945 29.0000000000000000 12.6064999999999987   T   T   T
  7.9786920450660332 28.0000000000000000 12.6065000000000005   T   T   T
  9.7517347217473755 27.0000000000000000 12.6065000000000005   T   T   T
