Mo S  Mo S  Mo S  Mo S  Mo S  Mo S  Mo S  Mo S  Mo S  Mo S  Mo S  Mo S  Mo S  Mo S  Mo S  Mo S  Mo S  Mo S  Mo S  Mo S  Mo S  Mo S  Mo S  Mo S  Mo S  Mo S  Mo S  Mo S  Mo S  Mo S  Mo S  Mo S  Mo S  Mo S  Mo S  Mo S  Mo S  Mo S  Mo S  Mo S  Mo S  Mo S  Mo S  Mo S  Mo S  Mo S  Mo S  Mo S  Mo S  Mo S  Mo S  Mo S  Mo S  Mo S  Mo S  Mo S  Mo S  Mo S  Mo S  Mo S  Mo S  Mo S  Mo S  Mo S 
 1.0000000000000000
    21.8931222076706078    0.0000000000000000    0.0000000000000000
   -10.9465611038353057   49.5844209404526524    0.0000000000000000
     0.0000000000000000    0.0000000000000000   25.0774467307452973
 Mo  S   Mo  S   Mo  S   Mo  S   Mo  S   Mo  S   Mo  S   Mo  S   Mo  S   Mo  S   Mo  S   Mo  S   Mo  S   Mo  S   Mo  S   Mo  S   Mo  S   Mo  S   Mo  S   Mo  S   Mo  S   Mo  S   Mo  S   Mo  S   Mo  S   Mo  S   Mo  S   Mo  S   Mo  S   Mo  S   Mo  S   Mo  S   Mo  S   Mo  S   Mo  S   Mo  S   Mo  S   Mo  S   Mo  S   Mo  S   Mo  S   Mo  S   Mo  S   Mo  S   Mo  S   Mo  S   Mo  S   Mo  S   Mo  S   Mo  S   Mo  S   Mo  S   Mo  S   Mo  S   Mo  S   Mo  S   Mo  S   Mo  S   Mo  S   Mo  S   Mo  S   Mo  S   Mo  S   Mo  S  
   1   2   1   2   1   2   1   2   1   2   1   2   1   2   1   2   1   2   1   2   1   2   1   2   1   2   1   2   1   2   1   2   1   2   1   2   1   2   1   2   1   2   1   2   1   2   1   2   1   2   1   2   1   2   1   2   1   2   1   2   1   2   1   2   1   2   1   2   1   2   1   2   1   2   1   2   1   2   1   2   1   2   1   2   1   2   1   2   1   2   1   2   1   2   1   2   1   2   1   2   1   2   1   2   1   2   1   2   1   2   1   2   1   2   1   2   1   2   1   2   1   2   1   2   1   2   1   2
Selective dynamics
Cartesian
  2.7366402759588255  6.2987455349145565 10.1880535826201957   F   F   F
 -0.9122134253196089  4.8353792068668930 10.3761071652403931   F   F   F
  0.9122134253196078  7.7621118629622208 10.0000000000000000   F   F   F
 -0.0000000000000007  6.5001313696305045 11.7551667711218322   F   F   F
  1.8244268506392181  5.0367650415828411 11.9432203537420278   F   F   F
  3.6488537012784334  7.9634976976781688 11.5671131885016347   F   F   F
  2.7366402759588273  6.7015172043464526 13.3222799596234669   T   T   T
 -0.9122134253196110  5.2381508762987901 13.5103335422436626   T   T   T
  0.9122134253196067  8.1648835323941178 13.1342263770032712   T   T   T
 -0.0000000000000005  6.9029030390624015 14.8893931481251016   T   T   T
  1.8244268506392169  5.4395367110147381 15.0774467307452973   T   T   T
 -1.8244268506392185  8.3662693671100659 14.7013395655049059   T   T   T
 -0.0000000000000009 18.6948507700277204 10.1880535826201957   F   F   F
 -3.6488537012784352 17.2314844419800579 10.3761071652403931   F   F   F
 -1.8244268506392185 20.1582170980753830 10.0000000000000000   F   F   F
 -2.7366402759588273 18.8962366047436667 11.7551667711218322   F   F   F
 -0.9122134253196084 17.4328702766960042 11.9432203537420278   F   F   F
  0.9122134253196070 20.3596029327913328 11.5671131885016347   F   F   F
  0.0000000000000009 19.0976224394596166 13.3222799596234669   T   T   T
 -3.6488537012784374 17.6342561114119540 13.5103335422436626   T   T   T
 -1.8244268506392198 20.5609887675072827 13.1342263770032712   T   T   T
 -2.7366402759588269 19.2990082741755629 14.8893931481251016   T   T   T
 -0.9122134253196095 17.8356419461279003 15.0774467307452973   T   T   T
 -4.5610671265980454 20.7623746022232289 14.7013395655049059   T   T   T
 -2.7366402759588273 31.0909560051408818 10.1880535826201957   F   F   F
 -6.3854939772372621 29.6275896770932192 10.3761071652403931   F   F   F
 -4.5610671265980454 32.5543223331885443 10.0000000000000000   F   F   F
 -5.4732805519176537 31.2923418398568316 11.7551667711218322   F   F   F
 -3.6488537012784348 29.8289755118091691 11.9432203537420278   F   F   F
 -1.8244268506392194 32.7557081679044941 11.5671131885016347   F   F   F
 -2.7366402759588255 31.4937276745727779 13.3222799596234669   T   T   T
 -6.3854939772372639 30.0303613465251154 13.5103335422436626   T   T   T
 -4.5610671265980463 32.9570940026204440 13.1342263770032712   T   T   T
 -5.4732805519176537 31.6951135092887277 14.8893931481251016   T   T   T
 -3.6488537012784361 30.2317471812410652 15.0774467307452973   T   T   T
 -7.2977074025568713 33.1584798373363938 14.7013395655049059   T   T   T
 -5.4732805519176537 43.4870612402540502 10.1880535826201957   F   F   F
 -9.1221342531960872 42.0236949122063805 10.3761071652403931   F   F   F
 -7.2977074025568713 44.9504275683017127 10.0000000000000000   F   F   F
 -8.2099208278764788 43.6884470749699929 11.7551667711218322   F   F   F
 -6.3854939772372603 42.2250807469223304 11.9432203537420278   F   F   F
 -4.5610671265980454 45.1518134030176626 11.5671131885016347   F   F   F
 -5.4732805519176519 43.8898329096859428 13.3222799596234669   T   T   T
 -9.1221342531960907 42.4264665816382802 13.5103335422436626   T   T   T
 -7.2977074025568722 45.3531992377336053 13.1342263770032712   T   T   T
 -8.2099208278764788 44.0912187444018926 14.8893931481251016   T   T   T
 -6.3854939772372621 42.6278524163542301 15.0774467307452973   T   T   T
 -10.0343476785156973 45.5545850724495551 14.7013395655049059   T   T   T
  8.2099208278764770  6.2987455349145565 10.1880535826201957   F   F   F
  4.5610671265980427  4.8353792068668930 10.3761071652403931   F   F   F
  6.3854939772372594  7.7621118629622208 10.0000000000000000   F   F   F
  5.4732805519176511  6.5001313696305045 11.7551667711218322   F   F   F
  7.2977074025568704  5.0367650415828411 11.9432203537420278   F   F   F
  9.1221342531960854  7.9634976976781688 11.5671131885016347   F   F   F
  8.2099208278764788  6.7015172043464526 13.3222799596234669   T   T   T
  4.5610671265980409  5.2381508762987901 13.5103335422436626   T   T   T
  6.3854939772372585  8.1648835323941178 13.1342263770032712   T   T   T
  5.4732805519176511  6.9029030390624015 14.8893931481251016   T   T   T
  7.2977074025568687  5.4395367110147381 15.0774467307452973   T   T   T
  3.6488537012784334  8.3662693671100659 14.7013395655049059   T   T   T
  5.4732805519176511 18.6948507700277204 10.1880535826201957   F   F   F
  1.8244268506392167 17.2314844419800579 10.3761071652403931   F   F   F
  3.6488537012784334 20.1582170980753830 10.0000000000000000   F   F   F
  2.7366402759588246 18.8962366047436667 11.7551667711218322   F   F   F
  4.5610671265980436 17.4328702766960042 11.9432203537420278   F   F   F
  6.3854939772372585 20.3596029327913328 11.5671131885016347   F   F   F
  5.4732805519176528 19.0976224394596166 13.3222799596234669   T   T   T
  1.8244268506392145 17.6342561114119540 13.5103335422436626   T   T   T
  3.6488537012784321 20.5609887675072827 13.1342263770032712   T   T   T
  2.7366402759588251 19.2990082741755629 14.8893931481251016   T   T   T
  4.5610671265980427 17.8356419461279003 15.0774467307452973   T   T   T
  0.9122134253196070 20.7623746022232289 14.7013395655049059   T   T   T
  2.7366402759588246 31.0909560051408818 10.1880535826201957   F   F   F
 -0.9122134253196098 29.6275896770932192 10.3761071652403931   F   F   F
  0.9122134253196069 32.5543223331885443 10.0000000000000000   F   F   F
 -0.0000000000000016 31.2923418398568316 11.7551667711218322   F   F   F
  1.8244268506392172 29.8289755118091691 11.9432203537420278   F   F   F
  3.6488537012784326 32.7557081679044941 11.5671131885016347   F   F   F
  2.7366402759588264 31.4937276745727779 13.3222799596234669   T   T   T
 -0.9122134253196119 30.0303613465251154 13.5103335422436626   T   T   T
  0.9122134253196058 32.9570940026204440 13.1342263770032712   T   T   T
 -0.0000000000000014 31.6951135092887277 14.8893931481251016   T   T   T
  1.8244268506392161 30.2317471812410652 15.0774467307452973   T   T   T
 -1.8244268506392194 33.1584798373363938 14.7013395655049059   T   T   T
 -0.0000000000000013 43.4870612402540502 10.1880535826201957   F   F   F
 -3.6488537012784357 42.0236949122063805 10.3761071652403931   F   F   F
 -1.8244268506392189 44.9504275683017127 10.0000000000000000   F   F   F
 -2.7366402759588278 43.6884470749699929 11.7551667711218322   F   F   F
 -0.9122134253196088 42.2250807469223304 11.9432203537420278   F   F   F
  0.9122134253196066 45.1518134030176626 11.5671131885016347   F   F   F
  0.0000000000000004 43.8898329096859428 13.3222799596234669   T   T   T
 -3.6488537012784379 42.4264665816382802 13.5103335422436626   T   T   T
 -1.8244268506392203 45.3531992377336053 13.1342263770032712   T   T   T
 -2.7366402759588273 44.0912187444018926 14.8893931481251016   T   T   T
 -0.9122134253196099 42.6278524163542301 15.0774467307452973   T   T   T
 -4.5610671265980454 45.5545850724495551 14.7013395655049059   T   T   T
 13.6832013797941290  6.2987455349145565 10.1880535826201957   F   F   F
 10.0343476785156955  4.8353792068668930 10.3761071652403931   F   F   F
 11.8587745291549123  7.7621118629622208 10.0000000000000000   F   F   F
 10.9465611038353039  6.5001313696305045 11.7551667711218322   F   F   F
 12.7709879544745224  5.0367650415828411 11.9432203537420278   F   F   F
 14.5954148051137373  7.9634976976781688 11.5671131885016347   F   F   F
 13.6832013797941308  6.7015172043464526 13.3222799596234669   T   T   T
 10.0343476785156938  5.2381508762987901 13.5103335422436626   T   T   T
 11.8587745291549105  8.1648835323941178 13.1342263770032712   T   T   T
 10.9465611038353039  6.9029030390624015 14.8893931481251016   T   T   T
 12.7709879544745206  5.4395367110147381 15.0774467307452973   T   T   T
  9.1221342531960854  8.3662693671100659 14.7013395655049059   T   T   T
 10.9465611038353021 18.6948507700277204 10.1880535826201957   F   F   F
  7.2977074025568678 17.2314844419800579 10.3761071652403931   F   F   F
  9.1221342531960854 20.1582170980753830 10.0000000000000000   F   F   F
  8.2099208278764770 18.8962366047436667 11.7551667711218322   F   F   F
 10.0343476785156955 17.4328702766960042 11.9432203537420278   F   F   F
 11.8587745291549105 20.3596029327913328 11.5671131885016347   F   F   F
 10.9465611038353039 19.0976224394596166 13.3222799596234669   T   T   T
  7.2977074025568660 17.6342561114119540 13.5103335422436626   T   T   T
  9.1221342531960836 20.5609887675072827 13.1342263770032712   T   T   T
  8.2099208278764770 19.2990082741755629 14.8893931481251016   T   T   T
 10.0343476785156938 17.8356419461279003 15.0774467307452973   T   T   T
  6.3854939772372585 20.7623746022232289 14.7013395655049059   T   T   T
  8.2099208278764770 31.0909560051408818 10.1880535826201957   F   F   F
  4.5610671265980418 29.6275896770932192 10.3761071652403931   F   F   F
  6.3854939772372585 32.5543223331885443 10.0000000000000000   F   F   F
  5.4732805519176502 31.2923418398568316 11.7551667711218322   F   F   F
  7.2977074025568687 29.8289755118091691 11.9432203537420278   F   F   F
  9.1221342531960836 32.7557081679044941 11.5671131885016347   F   F   F
  8.2099208278764788 31.4937276745727779 13.3222799596234669   T   T   T
  4.5610671265980400 30.0303613465251154 13.5103335422436626   T   T   T
  6.3854939772372576 32.9570940026204440 13.1342263770032712   T   T   T
  5.4732805519176502 31.6951135092887277 14.8893931481251016   T   T   T
  7.2977074025568678 30.2317471812410652 15.0774467307452973   T   T   T
  3.6488537012784326 33.1584798373363938 14.7013395655049059   T   T   T
  5.4732805519176502 43.4870612402540502 10.1880535826201957   F   F   F
  1.8244268506392163 42.0236949122063805 10.3761071652403931   F   F   F
  3.6488537012784330 44.9504275683017127 10.0000000000000000   F   F   F
  2.7366402759588242 43.6884470749699929 11.7551667711218322   F   F   F
  4.5610671265980436 42.2250807469223304 11.9432203537420278   F   F   F
  6.3854939772372585 45.1518134030176626 11.5671131885016347   F   F   F
  5.4732805519176519 43.8898329096859428 13.3222799596234669   T   T   T
  1.8244268506392141 42.4264665816382802 13.5103335422436626   T   T   T
  3.6488537012784317 45.3531992377336053 13.1342263770032712   T   T   T
  2.7366402759588246 44.0912187444018926 14.8893931481251016   T   T   T
  4.5610671265980418 42.6278524163542301 15.0774467307452973   T   T   T
  0.9122134253196066 45.5545850724495551 14.7013395655049059   T   T   T
 19.1564819317117809  6.2987455349145565 10.1880535826201957   F   F   F
 15.5076282304333457  4.8353792068668930 10.3761071652403931   F   F   F
 17.3320550810725607  7.7621118629622208 10.0000000000000000   F   F   F
 16.4198416557529541  6.5001313696305045 11.7551667711218322   F   F   F
 18.2442685063921708  5.0367650415828411 11.9432203537420278   F   F   F
 20.0686953570313875  7.9634976976781688 11.5671131885016347   F   F   F
 19.1564819317117809  6.7015172043464526 13.3222799596234669   T   T   T
 15.5076282304333439  5.2381508762987901 13.5103335422436626   T   T   T
 17.3320550810725607  8.1648835323941178 13.1342263770032712   T   T   T
 16.4198416557529541  6.9029030390624015 14.8893931481251016   T   T   T
 18.2442685063921708  5.4395367110147381 15.0774467307452973   T   T   T
 14.5954148051137356  8.3662693671100659 14.7013395655049059   T   T   T
 16.4198416557529541 18.6948507700277204 10.1880535826201957   F   F   F
 12.7709879544745188 17.2314844419800579 10.3761071652403931   F   F   F
 14.5954148051137356 20.1582170980753830 10.0000000000000000   F   F   F
 13.6832013797941272 18.8962366047436667 11.7551667711218322   F   F   F
 15.5076282304333457 17.4328702766960042 11.9432203537420278   F   F   F
 17.3320550810725607 20.3596029327913328 11.5671131885016347   F   F   F
 16.4198416557529541 19.0976224394596166 13.3222799596234669   T   T   T
 12.7709879544745171 17.6342561114119540 13.5103335422436626   T   T   T
 14.5954148051137338 20.5609887675072827 13.1342263770032712   T   T   T
 13.6832013797941272 19.2990082741755629 14.8893931481251016   T   T   T
 15.5076282304333439 17.8356419461279003 15.0774467307452973   T   T   T
 11.8587745291549087 20.7623746022232289 14.7013395655049059   T   T   T
 13.6832013797941254 31.0909560051408818 10.1880535826201957   F   F   F
 10.0343476785156920 29.6275896770932192 10.3761071652403931   F   F   F
 11.8587745291549087 32.5543223331885443 10.0000000000000000   F   F   F
 10.9465611038353003 31.2923418398568316 11.7551667711218322   F   F   F
 12.7709879544745188 29.8289755118091691 11.9432203537420278   F   F   F
 14.5954148051137338 32.7557081679044941 11.5671131885016347   F   F   F
 13.6832013797941272 31.4937276745727779 13.3222799596234669   T   T   T
 10.0343476785156902 30.0303613465251154 13.5103335422436626   T   T   T
 11.8587745291549069 32.9570940026204440 13.1342263770032712   T   T   T
 10.9465611038353003 31.6951135092887277 14.8893931481251016   T   T   T
 12.7709879544745171 30.2317471812410652 15.0774467307452973   T   T   T
  9.1221342531960818 33.1584798373363938 14.7013395655049059   T   T   T
 10.9465611038353003 43.4870612402540502 10.1880535826201957   F   F   F
  7.2977074025568660 42.0236949122063805 10.3761071652403931   F   F   F
  9.1221342531960836 44.9504275683017127 10.0000000000000000   F   F   F
  8.2099208278764753 43.6884470749699929 11.7551667711218322   F   F   F
 10.0343476785156938 42.2250807469223304 11.9432203537420278   F   F   F
 11.8587745291549087 45.1518134030176626 11.5671131885016347   F   F   F
 10.9465611038353021 43.8898329096859428 13.3222799596234669   T   T   T
  7.2977074025568642 42.4264665816382802 13.5103335422436626   T   T   T
  9.1221342531960818 45.3531992377336053 13.1342263770032712   T   T   T
  8.2099208278764753 44.0912187444018926 14.8893931481251016   T   T   T
 10.0343476785156920 42.6278524163542301 15.0774467307452973   T   T   T
  6.3854939772372568 45.5545850724495551 14.7013395655049059   T   T   T
