Mo Se Mo Se Mo Se Mo Se Mo Se Mo Se Mo Se Mo Se Mo Se Mo Se Mo Se
 1.0000000000000000
    37.1128752807346984    0.0000000000000000    0.0000000000000000
    -3.2890000000000001    5.6967151060940378    0.0000000000000000
     0.0000000000000000    0.0000000000000000   19.1188000000000002
 Mo  Se  Mo  Se  Mo  Se  Mo  Se  Mo  Se  Mo  Se  Mo  Se  Mo  Se  Mo  Se  Mo  Se  Mo  Se 
   1   4   1   2   1   2   1   2   1   2   1   2   1   2   1   2   1   2   1   2   1   2
Selective dynamics
Cartesian
  9.2376043070340135  0.0000000000000000  9.5594000000000001   T   T   T
  9.2376043070340135  1.8989050353646793 11.1188000000000002   T   T   T
 10.8821043070340142  0.9494525176823396  8.0000000000000000   F   F   F
  7.5931043070340136  4.7472625884116981 11.1188000000000002   T   T   T
  9.2376043070340135  3.7978100707293585  8.0000000000000000   F   F   F
 12.5266043070340132  0.0000000000000000  9.5594000000000001   T   T   T
 12.5266043070340132  1.8989050353646793 11.1188000000000002   T   T   T
 14.1711043070340139  0.9494525176823396  8.0000000000000000   F   F   F
 10.8821043070340142  2.8483575530470189  9.5594000000000001   T   T   T
 10.8821043070340142  4.7472625884116981 11.1188000000000002   T   T   T
 12.5266043070340132  3.7978100707293585  8.0000000000000000   F   F   F
 15.8156043070340147  0.0000000000000000  9.5594000000000001   T   T   T
 15.8156043070340147  1.8989050353646793 11.1188000000000002   T   T   T
 17.4601043070340154  0.9494525176823396  8.0000000000000000   F   F   F
 14.1711043070340139  2.8483575530470189  9.5594000000000001   T   T   T
 14.1711043070340139  4.7472625884116981 11.1188000000000002   T   T   T
 15.8156043070340147  3.7978100707293585  8.0000000000000000   F   F   F
 19.1046043070340161  0.0000000000000000  9.5594000000000001   T   T   T
 19.1046043070340161  1.8989050353646793 11.1188000000000002   T   T   T
 20.7491043070340169  0.9494525176823396  8.0000000000000000   F   F   F
 17.4601043070340154  2.8483575530470189  9.5594000000000001   T   T   T
 17.4601043070340154  4.7472625884116981 11.1188000000000002   T   T   T
 19.1046043070340161  3.7978100707293585  8.0000000000000000   F   F   F
 22.3936043070340141  0.0000000000000000  9.5594000000000001   T   T   T
 22.3936043070340141  1.8989050353646793 11.1188000000000002   T   T   T
 24.0381043070340148  0.9494525176823396  8.0000000000000000   F   F   F
 20.7491043070340133  2.8483575530470189  9.5594000000000001   T   T   T
 20.7491043070340133  4.7472625884116981 11.1188000000000002   T   T   T
 22.3936043070340141  3.7978100707293585  8.0000000000000000   F   F   F
 25.6826043070340120  0.0000000000000000  9.5594000000000001   T   T   T
 25.6826043070340120  1.8989050353646793 11.1188000000000002   T   T   T
 27.3271043070340127  0.9494525176823396  8.0000000000000000   F   F   F
 24.0381043070340112  2.8483575530470189  9.5594000000000001   T   T   T
 24.0381043070340112  4.7472625884116981 11.1188000000000002   T   T   T
 25.6826043070340120  3.7978100707293585  8.0000000000000000   F   F   F
