Mo B  Mo B  Mo B  Mo B  Mo B  Mo B  Mo B  Mo B  Mo B  Mo B  Mo B  Mo B  Mo B  Mo B  Mo B  Mo B  Mo B  Mo B  Mo B  Mo B  Mo B  Mo B  Mo B  Mo B  Mo B  Mo B  Mo B  Mo B  Mo B  Mo B  Mo B  Mo B  Mo B  Mo B  Mo B  Mo B  Mo B  Mo B  Mo B  Mo B  Mo B  Mo B  Mo B  Mo B  Mo B  Mo B  Mo B  Mo B  Mo B  Mo B  Mo B  Mo B  Mo B  Mo B  Mo B  Mo B  Mo B  Mo B  Mo B  Mo B  Mo B  Mo B  Mo B  Mo B 
 1.0000000000000000
    17.5928167159213018    0.0000000000000000    0.0000000000000000
     0.0000000000000000   67.7999999999999972    0.0000000000000000
     0.0000000000000000    0.0000000000000000   27.6968573132155740
 Mo  B   Mo  B   Mo  B   Mo  B   Mo  B   Mo  B   Mo  B   Mo  B   Mo  B   Mo  B   Mo  B   Mo  B   Mo  B   Mo  B   Mo  B   Mo  B   Mo  B   Mo  B   Mo  B   Mo  B   Mo  B   Mo  B   Mo  B   Mo  B   Mo  B   Mo  B   Mo  B   Mo  B   Mo  B   Mo  B   Mo  B   Mo  B   Mo  B   Mo  B   Mo  B   Mo  B   Mo  B   Mo  B   Mo  B   Mo  B   Mo  B   Mo  B   Mo  B   Mo  B   Mo  B   Mo  B   Mo  B   Mo  B   Mo  B   Mo  B   Mo  B   Mo  B   Mo  B   Mo  B   Mo  B   Mo  B   Mo  B   Mo  B   Mo  B   Mo  B   Mo  B   Mo  B   Mo  B   Mo  B  
   8   8   8   8   8   8   8   8   8   8   8   8   8   8   8   8   8   8   8   8   8   8   8   8   8   8   8   8   8   8   8   8   8   8   8   8   8   8   8   8   8   8   8   8   8   8   8   8   8   8   8   8   8   8   8   8   8   8   8   8   8   8   8   8   8   8   8   8   8   8   8   8   8   8   8   8   8   8   8   8   8   8   8   8   8   8   8   8   8   8   8   8   8   8   8   8   8   8   8   8   8   8   8   8   8   8   8   8   8   8   8   8   8   8   8   8   8   8   8   8   8   8   8   8   8   8   8   8
Selective dynamics
Cartesian
  0.0000000000000000 13.6108499999999957 10.0000000000000000   F   F   F
  2.1991020894901623  9.3733499999999967 10.0000000000000000   F   F   F
  3.2986531342352432  5.1358500000000014 11.0995510447450823   F   F   F
  1.0995510447450809  0.8983500000000006 11.0995510447450805   F   F   F
  0.0000000000000000  3.3391499999999987 10.0000000000000000   F   F   F
  2.1991020894901623  7.5766499999999981 10.0000000000000000   F   F   F
  3.2986531342352432 11.8141499999999979 11.0995510447450823   F   F   F
  1.0995510447450809 16.0516499999999951 11.0995510447450805   F   F   F
  0.0000000000000000 11.0513999999999992 10.0000000000000000   F   F   F
  2.1991020894901623  6.8138999999999994 10.0000000000000000   F   F   F
  3.2986531342352432  2.5763999999999996 11.0995510447450823   F   F   F
  1.0995510447450809 15.2888999999999964 11.0995510447450805   F   F   F
  0.0000000000000000  5.8985999999999992 10.0000000000000000   F   F   F
  2.1991020894901623 10.1360999999999972 10.0000000000000000   F   F   F
  3.2986531342352432 14.3735999999999944 11.0995510447450823   F   F   F
  1.0995510447450809  1.6610999999999994 11.0995510447450805   F   F   F
  2.1991020894901623 13.6108499999999957 12.1991020894901627   F   F   F
  4.3982041789803246  9.3733499999999967 12.1991020894901645   F   F   F
  1.0995510447450805  5.1358500000000014 13.2986531342352450   F   F   F
  3.2986531342352428  0.8983500000000006 13.2986531342352450   F   F   F
  2.1991020894901623  3.3391499999999987 12.1991020894901627   F   F   F
  4.3982041789803246  7.5766499999999981 12.1991020894901645   F   F   F
  1.0995510447450805 11.8141499999999979 13.2986531342352450   F   F   F
  3.2986531342352428 16.0516499999999951 13.2986531342352450   F   F   F
  2.1991020894901623 11.0513999999999992 12.1991020894901627   F   F   F
  4.3982041789803246  6.8138999999999994 12.1991020894901645   F   F   F
  1.0995510447450805  2.5763999999999996 13.2986531342352450   F   F   F
  3.2986531342352428 15.2888999999999964 13.2986531342352450   F   F   F
  2.1991020894901623  5.8985999999999992 12.1991020894901627   F   F   F
  4.3982041789803246 10.1360999999999972 12.1991020894901645   F   F   F
  1.0995510447450805 14.3735999999999944 13.2986531342352450   F   F   F
  3.2986531342352428  1.6610999999999994 13.2986531342352450   F   F   F
  4.3982041789803246 13.6108499999999957 14.3982041789803255   T   T   T
  2.1991020894901609  9.3733499999999967 14.3982041789803255   T   T   T
  3.2986531342352423  5.1358500000000014 15.4977552237254095   T   T   T
  1.0995510447450794  0.8983500000000006 15.4977552237254077   T   T   T
  4.3982041789803246  3.3391499999999987 14.3982041789803255   T   T   T
  2.1991020894901609  7.5766499999999981 14.3982041789803255   T   T   T
  3.2986531342352423 11.8141499999999979 15.4977552237254095   T   T   T
  1.0995510447450794 16.0516499999999951 15.4977552237254077   T   T   T
  4.3982041789803246 11.0513999999999992 14.3982041789803255   T   T   T
  2.1991020894901609  6.8138999999999994 14.3982041789803255   T   T   T
  3.2986531342352423  2.5763999999999996 15.4977552237254095   T   T   T
  1.0995510447450794 15.2888999999999964 15.4977552237254077   T   T   T
  4.3982041789803246  5.8985999999999992 14.3982041789803255   T   T   T
  2.1991020894901609 10.1360999999999972 14.3982041789803255   T   T   T
  3.2986531342352423 14.3735999999999944 15.4977552237254095   T   T   T
  1.0995510447450794  1.6610999999999994 15.4977552237254077   T   T   T
  2.1991020894901609 13.6108499999999957 16.5973062684704900   T   T   T
  4.3982041789803237  9.3733499999999967 16.5973062684704900   T   T   T
  1.0995510447450794  5.1358500000000014 17.6968573132155740   T   T   T
  3.2986531342352423  0.8983500000000006 17.6968573132155740   T   T   T
  2.1991020894901609  3.3391499999999987 16.5973062684704900   T   T   T
  4.3982041789803237  7.5766499999999981 16.5973062684704900   T   T   T
  1.0995510447450794 11.8141499999999979 17.6968573132155740   T   T   T
  3.2986531342352423 16.0516499999999951 17.6968573132155740   T   T   T
  2.1991020894901609 11.0513999999999992 16.5973062684704900   T   T   T
  4.3982041789803237  6.8138999999999994 16.5973062684704900   T   T   T
  1.0995510447450794  2.5763999999999996 17.6968573132155740   T   T   T
  3.2986531342352423 15.2888999999999964 17.6968573132155740   T   T   T
  2.1991020894901609  5.8985999999999992 16.5973062684704900   T   T   T
  4.3982041789803237 10.1360999999999972 16.5973062684704900   T   T   T
  1.0995510447450794 14.3735999999999944 17.6968573132155740   T   T   T
  3.2986531342352423  1.6610999999999994 17.6968573132155740   T   T   T
  0.0000000000000000 30.5608499999999950 10.0000000000000000   F   F   F
  2.1991020894901623 26.3233499999999978 10.0000000000000000   F   F   F
  3.2986531342352432 22.0858500000000006 11.0995510447450823   F   F   F
  1.0995510447450809 17.8483499999999999 11.0995510447450805   F   F   F
  0.0000000000000000 20.2891499999999994 10.0000000000000000   F   F   F
  2.1991020894901623 24.5266499999999965 10.0000000000000000   F   F   F
  3.2986531342352432 28.7641499999999972 11.0995510447450823   F   F   F
  1.0995510447450809 33.0016499999999979 11.0995510447450805   F   F   F
  0.0000000000000000 28.0013999999999967 10.0000000000000000   F   F   F
  2.1991020894901623 23.7638999999999996 10.0000000000000000   F   F   F
  3.2986531342352432 19.5263999999999989 11.0995510447450823   F   F   F
  1.0995510447450809 32.2388999999999939 11.0995510447450805   F   F   F
  0.0000000000000000 22.8485999999999976 10.0000000000000000   F   F   F
  2.1991020894901623 27.0860999999999947 10.0000000000000000   F   F   F
  3.2986531342352432 31.3235999999999919 11.0995510447450823   F   F   F
  1.0995510447450809 18.6111000000000004 11.0995510447450805   F   F   F
  2.1991020894901623 30.5608499999999950 12.1991020894901627   F   F   F
  4.3982041789803246 26.3233499999999978 12.1991020894901645   F   F   F
  1.0995510447450805 22.0858500000000006 13.2986531342352450   F   F   F
  3.2986531342352428 17.8483499999999999 13.2986531342352450   F   F   F
  2.1991020894901623 20.2891499999999994 12.1991020894901627   F   F   F
  4.3982041789803246 24.5266499999999965 12.1991020894901645   F   F   F
  1.0995510447450805 28.7641499999999972 13.2986531342352450   F   F   F
  3.2986531342352428 33.0016499999999979 13.2986531342352450   F   F   F
  2.1991020894901623 28.0013999999999967 12.1991020894901627   F   F   F
  4.3982041789803246 23.7638999999999996 12.1991020894901645   F   F   F
  1.0995510447450805 19.5263999999999989 13.2986531342352450   F   F   F
  3.2986531342352428 32.2388999999999939 13.2986531342352450   F   F   F
  2.1991020894901623 22.8485999999999976 12.1991020894901627   F   F   F
  4.3982041789803246 27.0860999999999947 12.1991020894901645   F   F   F
  1.0995510447450805 31.3235999999999919 13.2986531342352450   F   F   F
  3.2986531342352428 18.6111000000000004 13.2986531342352450   F   F   F
  4.3982041789803246 30.5608499999999950 14.3982041789803255   T   T   T
  2.1991020894901609 26.3233499999999978 14.3982041789803255   T   T   T
  3.2986531342352423 22.0858500000000006 15.4977552237254095   T   T   T
  1.0995510447450794 17.8483499999999999 15.4977552237254077   T   T   T
  4.3982041789803246 20.2891499999999994 14.3982041789803255   T   T   T
  2.1991020894901609 24.5266499999999965 14.3982041789803255   T   T   T
  3.2986531342352423 28.7641499999999972 15.4977552237254095   T   T   T
  1.0995510447450794 33.0016499999999979 15.4977552237254077   T   T   T
  4.3982041789803246 28.0013999999999967 14.3982041789803255   T   T   T
  2.1991020894901609 23.7638999999999996 14.3982041789803255   T   T   T
  3.2986531342352423 19.5263999999999989 15.4977552237254095   T   T   T
  1.0995510447450794 32.2388999999999939 15.4977552237254077   T   T   T
  4.3982041789803246 22.8485999999999976 14.3982041789803255   T   T   T
  2.1991020894901609 27.0860999999999947 14.3982041789803255   T   T   T
  3.2986531342352423 31.3235999999999919 15.4977552237254095   T   T   T
  1.0995510447450794 18.6111000000000004 15.4977552237254077   T   T   T
  2.1991020894901609 30.5608499999999950 16.5973062684704900   T   T   T
  4.3982041789803237 26.3233499999999978 16.5973062684704900   T   T   T
  1.0995510447450794 22.0858500000000006 17.6968573132155740   T   T   T
  3.2986531342352423 17.8483499999999999 17.6968573132155740   T   T   T
  2.1991020894901609 20.2891499999999994 16.5973062684704900   T   T   T
  4.3982041789803237 24.5266499999999965 16.5973062684704900   T   T   T
  1.0995510447450794 28.7641499999999972 17.6968573132155740   T   T   T
  3.2986531342352423 33.0016499999999979 17.6968573132155740   T   T   T
  2.1991020894901609 28.0013999999999967 16.5973062684704900   T   T   T
  4.3982041789803237 23.7638999999999996 16.5973062684704900   T   T   T
  1.0995510447450794 19.5263999999999989 17.6968573132155740   T   T   T
  3.2986531342352423 32.2388999999999939 17.6968573132155740   T   T   T
  2.1991020894901609 22.8485999999999976 16.5973062684704900   T   T   T
  4.3982041789803237 27.0860999999999947 16.5973062684704900   T   T   T
  1.0995510447450794 31.3235999999999919 17.6968573132155740   T   T   T
  3.2986531342352423 18.6111000000000004 17.6968573132155740   T   T   T
  0.0000000000000000 47.5108499999999907 10.0000000000000000   F   F   F
  2.1991020894901623 43.2733499999999935 10.0000000000000000   F   F   F
  3.2986531342352432 39.0358499999999964 11.0995510447450823   F   F   F
  1.0995510447450809 34.7983499999999992 11.0995510447450805   F   F   F
  0.0000000000000000 37.2391499999999951 10.0000000000000000   F   F   F
  2.1991020894901623 41.4766499999999994 10.0000000000000000   F   F   F
  3.2986531342352432 45.7141499999999965 11.0995510447450823   F   F   F
  1.0995510447450809 49.9516499999999937 11.0995510447450805   F   F   F
  0.0000000000000000 44.9513999999999996 10.0000000000000000   F   F   F
  2.1991020894901623 40.7138999999999953 10.0000000000000000   F   F   F
  3.2986531342352432 36.4763999999999982 11.0995510447450823   F   F   F
  1.0995510447450809 49.1888999999999967 11.0995510447450805   F   F   F
  0.0000000000000000 39.7986000000000004 10.0000000000000000   F   F   F
  2.1991020894901623 44.0360999999999976 10.0000000000000000   F   F   F
  3.2986531342352432 48.2735999999999947 11.0995510447450823   F   F   F
  1.0995510447450809 35.5610999999999962 11.0995510447450805   F   F   F
  2.1991020894901623 47.5108499999999907 12.1991020894901627   F   F   F
  4.3982041789803246 43.2733499999999935 12.1991020894901645   F   F   F
  1.0995510447450805 39.0358499999999964 13.2986531342352450   F   F   F
  3.2986531342352428 34.7983499999999992 13.2986531342352450   F   F   F
  2.1991020894901623 37.2391499999999951 12.1991020894901627   F   F   F
  4.3982041789803246 41.4766499999999994 12.1991020894901645   F   F   F
  1.0995510447450805 45.7141499999999965 13.2986531342352450   F   F   F
  3.2986531342352428 49.9516499999999937 13.2986531342352450   F   F   F
  2.1991020894901623 44.9513999999999996 12.1991020894901627   F   F   F
  4.3982041789803246 40.7138999999999953 12.1991020894901645   F   F   F
  1.0995510447450805 36.4763999999999982 13.2986531342352450   F   F   F
  3.2986531342352428 49.1888999999999967 13.2986531342352450   F   F   F
  2.1991020894901623 39.7986000000000004 12.1991020894901627   F   F   F
  4.3982041789803246 44.0360999999999976 12.1991020894901645   F   F   F
  1.0995510447450805 48.2735999999999947 13.2986531342352450   F   F   F
  3.2986531342352428 35.5610999999999962 13.2986531342352450   F   F   F
  4.3982041789803246 47.5108499999999907 14.3982041789803255   T   T   T
  2.1991020894901609 43.2733499999999935 14.3982041789803255   T   T   T
  3.2986531342352423 39.0358499999999964 15.4977552237254095   T   T   T
  1.0995510447450794 34.7983499999999992 15.4977552237254077   T   T   T
  4.3982041789803246 37.2391499999999951 14.3982041789803255   T   T   T
  2.1991020894901609 41.4766499999999994 14.3982041789803255   T   T   T
  3.2986531342352423 45.7141499999999965 15.4977552237254095   T   T   T
  1.0995510447450794 49.9516499999999937 15.4977552237254077   T   T   T
  4.3982041789803246 44.9513999999999996 14.3982041789803255   T   T   T
  2.1991020894901609 40.7138999999999953 14.3982041789803255   T   T   T
  3.2986531342352423 36.4763999999999982 15.4977552237254095   T   T   T
  1.0995510447450794 49.1888999999999967 15.4977552237254077   T   T   T
  4.3982041789803246 39.7986000000000004 14.3982041789803255   T   T   T
  2.1991020894901609 44.0360999999999976 14.3982041789803255   T   T   T
  3.2986531342352423 48.2735999999999947 15.4977552237254095   T   T   T
  1.0995510447450794 35.5610999999999962 15.4977552237254077   T   T   T
  2.1991020894901609 47.5108499999999907 16.5973062684704900   T   T   T
  4.3982041789803237 43.2733499999999935 16.5973062684704900   T   T   T
  1.0995510447450794 39.0358499999999964 17.6968573132155740   T   T   T
  3.2986531342352423 34.7983499999999992 17.6968573132155740   T   T   T
  2.1991020894901609 37.2391499999999951 16.5973062684704900   T   T   T
  4.3982041789803237 41.4766499999999994 16.5973062684704900   T   T   T
  1.0995510447450794 45.7141499999999965 17.6968573132155740   T   T   T
  3.2986531342352423 49.9516499999999937 17.6968573132155740   T   T   T
  2.1991020894901609 44.9513999999999996 16.5973062684704900   T   T   T
  4.3982041789803237 40.7138999999999953 16.5973062684704900   T   T   T
  1.0995510447450794 36.4763999999999982 17.6968573132155740   T   T   T
  3.2986531342352423 49.1888999999999967 17.6968573132155740   T   T   T
  2.1991020894901609 39.7986000000000004 16.5973062684704900   T   T   T
  4.3982041789803237 44.0360999999999976 16.5973062684704900   T   T   T
  1.0995510447450794 48.2735999999999947 17.6968573132155740   T   T   T
  3.2986531342352423 35.5610999999999962 17.6968573132155740   T   T   T
  0.0000000000000000 64.4608499999999935 10.0000000000000000   F   F   F
  2.1991020894901623 60.2233499999999893 10.0000000000000000   F   F   F
  3.2986531342352432 55.9858499999999992 11.0995510447450823   F   F   F
  1.0995510447450809 51.7483499999999950 11.0995510447450805   F   F   F
  0.0000000000000000 54.1891499999999908 10.0000000000000000   F   F   F
  2.1991020894901623 58.4266499999999951 10.0000000000000000   F   F   F
  3.2986531342352432 62.6641499999999922 11.0995510447450823   F   F   F
  1.0995510447450809 66.9016499999999894 11.0995510447450805   F   F   F
  0.0000000000000000 61.9013999999999953 10.0000000000000000   F   F   F
  2.1991020894901623 57.6638999999999911 10.0000000000000000   F   F   F
  3.2986531342352432 53.4263999999999939 11.0995510447450823   F   F   F
  1.0995510447450809 66.1388999999999925 11.0995510447450805   F   F   F
  0.0000000000000000 56.7485999999999962 10.0000000000000000   F   F   F
  2.1991020894901623 60.9860999999999933 10.0000000000000000   F   F   F
  3.2986531342352432 65.2235999999999905 11.0995510447450823   F   F   F
  1.0995510447450809 52.5110999999999919 11.0995510447450805   F   F   F
  2.1991020894901623 64.4608499999999935 12.1991020894901627   F   F   F
  4.3982041789803246 60.2233499999999893 12.1991020894901645   F   F   F
  1.0995510447450805 55.9858499999999992 13.2986531342352450   F   F   F
  3.2986531342352428 51.7483499999999950 13.2986531342352450   F   F   F
  2.1991020894901623 54.1891499999999908 12.1991020894901627   F   F   F
  4.3982041789803246 58.4266499999999951 12.1991020894901645   F   F   F
  1.0995510447450805 62.6641499999999922 13.2986531342352450   F   F   F
  3.2986531342352428 66.9016499999999894 13.2986531342352450   F   F   F
  2.1991020894901623 61.9013999999999953 12.1991020894901627   F   F   F
  4.3982041789803246 57.6638999999999911 12.1991020894901645   F   F   F
  1.0995510447450805 53.4263999999999939 13.2986531342352450   F   F   F
  3.2986531342352428 66.1388999999999925 13.2986531342352450   F   F   F
  2.1991020894901623 56.7485999999999962 12.1991020894901627   F   F   F
  4.3982041789803246 60.9860999999999933 12.1991020894901645   F   F   F
  1.0995510447450805 65.2235999999999905 13.2986531342352450   F   F   F
  3.2986531342352428 52.5110999999999919 13.2986531342352450   F   F   F
  4.3982041789803246 64.4608499999999935 14.3982041789803255   T   T   T
  2.1991020894901609 60.2233499999999893 14.3982041789803255   T   T   T
  3.2986531342352423 55.9858499999999992 15.4977552237254095   T   T   T
  1.0995510447450794 51.7483499999999950 15.4977552237254077   T   T   T
  4.3982041789803246 54.1891499999999908 14.3982041789803255   T   T   T
  2.1991020894901609 58.4266499999999951 14.3982041789803255   T   T   T
  3.2986531342352423 62.6641499999999922 15.4977552237254095   T   T   T
  1.0995510447450794 66.9016499999999894 15.4977552237254077   T   T   T
  4.3982041789803246 61.9013999999999953 14.3982041789803255   T   T   T
  2.1991020894901609 57.6638999999999911 14.3982041789803255   T   T   T
  3.2986531342352423 53.4263999999999939 15.4977552237254095   T   T   T
  1.0995510447450794 66.1388999999999925 15.4977552237254077   T   T   T
  4.3982041789803246 56.7485999999999962 14.3982041789803255   T   T   T
  2.1991020894901609 60.9860999999999933 14.3982041789803255   T   T   T
  3.2986531342352423 65.2235999999999905 15.4977552237254095   T   T   T
  1.0995510447450794 52.5110999999999919 15.4977552237254077   T   T   T
  2.1991020894901609 64.4608499999999935 16.5973062684704900   T   T   T
  4.3982041789803237 60.2233499999999893 16.5973062684704900   T   T   T
  1.0995510447450794 55.9858499999999992 17.6968573132155740   T   T   T
  3.2986531342352423 51.7483499999999950 17.6968573132155740   T   T   T
  2.1991020894901609 54.1891499999999908 16.5973062684704900   T   T   T
  4.3982041789803237 58.4266499999999951 16.5973062684704900   T   T   T
  1.0995510447450794 62.6641499999999922 17.6968573132155740   T   T   T
  3.2986531342352423 66.9016499999999894 17.6968573132155740   T   T   T
  2.1991020894901609 61.9013999999999953 16.5973062684704900   T   T   T
  4.3982041789803237 57.6638999999999911 16.5973062684704900   T   T   T
  1.0995510447450794 53.4263999999999939 17.6968573132155740   T   T   T
  3.2986531342352423 66.1388999999999925 17.6968573132155740   T   T   T
  2.1991020894901609 56.7485999999999962 16.5973062684704900   T   T   T
  4.3982041789803237 60.9860999999999933 16.5973062684704900   T   T   T
  1.0995510447450794 65.2235999999999905 17.6968573132155740   T   T   T
  3.2986531342352423 52.5110999999999919 17.6968573132155740   T   T   T
  4.3982041789803255 13.6108499999999957 10.0000000000000000   F   F   F
  6.5973062684704882  9.3733499999999967 10.0000000000000000   F   F   F
  7.6968573132155687  5.1358500000000014 11.0995510447450823   F   F   F
  5.4977552237254059  0.8983500000000006 11.0995510447450805   F   F   F
  4.3982041789803255  3.3391499999999987 10.0000000000000000   F   F   F
  6.5973062684704882  7.5766499999999981 10.0000000000000000   F   F   F
  7.6968573132155687 11.8141499999999979 11.0995510447450823   F   F   F
  5.4977552237254059 16.0516499999999951 11.0995510447450805   F   F   F
  4.3982041789803255 11.0513999999999992 10.0000000000000000   F   F   F
  6.5973062684704882  6.8138999999999994 10.0000000000000000   F   F   F
  7.6968573132155687  2.5763999999999996 11.0995510447450823   F   F   F
  5.4977552237254059 15.2888999999999964 11.0995510447450805   F   F   F
  4.3982041789803255  5.8985999999999992 10.0000000000000000   F   F   F
  6.5973062684704882 10.1360999999999972 10.0000000000000000   F   F   F
  7.6968573132155687 14.3735999999999944 11.0995510447450823   F   F   F
  5.4977552237254059  1.6610999999999994 11.0995510447450805   F   F   F
  6.5973062684704882 13.6108499999999957 12.1991020894901627   F   F   F
  8.7964083579606509  9.3733499999999967 12.1991020894901645   F   F   F
  5.4977552237254059  5.1358500000000014 13.2986531342352450   F   F   F
  7.6968573132155687  0.8983500000000006 13.2986531342352450   F   F   F
  6.5973062684704882  3.3391499999999987 12.1991020894901627   F   F   F
  8.7964083579606509  7.5766499999999981 12.1991020894901645   F   F   F
  5.4977552237254059 11.8141499999999979 13.2986531342352450   F   F   F
  7.6968573132155687 16.0516499999999951 13.2986531342352450   F   F   F
  6.5973062684704882 11.0513999999999992 12.1991020894901627   F   F   F
  8.7964083579606509  6.8138999999999994 12.1991020894901645   F   F   F
  5.4977552237254059  2.5763999999999996 13.2986531342352450   F   F   F
  7.6968573132155687 15.2888999999999964 13.2986531342352450   F   F   F
  6.5973062684704882  5.8985999999999992 12.1991020894901627   F   F   F
  8.7964083579606509 10.1360999999999972 12.1991020894901645   F   F   F
  5.4977552237254059 14.3735999999999944 13.2986531342352450   F   F   F
  7.6968573132155687  1.6610999999999994 13.2986531342352450   F   F   F
  8.7964083579606509 13.6108499999999957 14.3982041789803255   T   T   T
  6.5973062684704864  9.3733499999999967 14.3982041789803255   T   T   T
  7.6968573132155678  5.1358500000000014 15.4977552237254095   T   T   T
  5.4977552237254050  0.8983500000000006 15.4977552237254077   T   T   T
  8.7964083579606509  3.3391499999999987 14.3982041789803255   T   T   T
  6.5973062684704864  7.5766499999999981 14.3982041789803255   T   T   T
  7.6968573132155678 11.8141499999999979 15.4977552237254095   T   T   T
  5.4977552237254050 16.0516499999999951 15.4977552237254077   T   T   T
  8.7964083579606509 11.0513999999999992 14.3982041789803255   T   T   T
  6.5973062684704864  6.8138999999999994 14.3982041789803255   T   T   T
  7.6968573132155678  2.5763999999999996 15.4977552237254095   T   T   T
  5.4977552237254050 15.2888999999999964 15.4977552237254077   T   T   T
  8.7964083579606509  5.8985999999999992 14.3982041789803255   T   T   T
  6.5973062684704864 10.1360999999999972 14.3982041789803255   T   T   T
  7.6968573132155678 14.3735999999999944 15.4977552237254095   T   T   T
  5.4977552237254050  1.6610999999999994 15.4977552237254077   T   T   T
  6.5973062684704864 13.6108499999999957 16.5973062684704900   T   T   T
  8.7964083579606491  9.3733499999999967 16.5973062684704900   T   T   T
  5.4977552237254050  5.1358500000000014 17.6968573132155740   T   T   T
  7.6968573132155678  0.8983500000000006 17.6968573132155740   T   T   T
  6.5973062684704864  3.3391499999999987 16.5973062684704900   T   T   T
  8.7964083579606491  7.5766499999999981 16.5973062684704900   T   T   T
  5.4977552237254050 11.8141499999999979 17.6968573132155740   T   T   T
  7.6968573132155678 16.0516499999999951 17.6968573132155740   T   T   T
  6.5973062684704864 11.0513999999999992 16.5973062684704900   T   T   T
  8.7964083579606491  6.8138999999999994 16.5973062684704900   T   T   T
  5.4977552237254050  2.5763999999999996 17.6968573132155740   T   T   T
  7.6968573132155678 15.2888999999999964 17.6968573132155740   T   T   T
  6.5973062684704864  5.8985999999999992 16.5973062684704900   T   T   T
  8.7964083579606491 10.1360999999999972 16.5973062684704900   T   T   T
  5.4977552237254050 14.3735999999999944 17.6968573132155740   T   T   T
  7.6968573132155678  1.6610999999999994 17.6968573132155740   T   T   T
  4.3982041789803255 30.5608499999999950 10.0000000000000000   F   F   F
  6.5973062684704882 26.3233499999999978 10.0000000000000000   F   F   F
  7.6968573132155687 22.0858500000000006 11.0995510447450823   F   F   F
  5.4977552237254059 17.8483499999999999 11.0995510447450805   F   F   F
  4.3982041789803255 20.2891499999999994 10.0000000000000000   F   F   F
  6.5973062684704882 24.5266499999999965 10.0000000000000000   F   F   F
  7.6968573132155687 28.7641499999999972 11.0995510447450823   F   F   F
  5.4977552237254059 33.0016499999999979 11.0995510447450805   F   F   F
  4.3982041789803255 28.0013999999999967 10.0000000000000000   F   F   F
  6.5973062684704882 23.7638999999999996 10.0000000000000000   F   F   F
  7.6968573132155687 19.5263999999999989 11.0995510447450823   F   F   F
  5.4977552237254059 32.2388999999999939 11.0995510447450805   F   F   F
  4.3982041789803255 22.8485999999999976 10.0000000000000000   F   F   F
  6.5973062684704882 27.0860999999999947 10.0000000000000000   F   F   F
  7.6968573132155687 31.3235999999999919 11.0995510447450823   F   F   F
  5.4977552237254059 18.6111000000000004 11.0995510447450805   F   F   F
  6.5973062684704882 30.5608499999999950 12.1991020894901627   F   F   F
  8.7964083579606509 26.3233499999999978 12.1991020894901645   F   F   F
  5.4977552237254059 22.0858500000000006 13.2986531342352450   F   F   F
  7.6968573132155687 17.8483499999999999 13.2986531342352450   F   F   F
  6.5973062684704882 20.2891499999999994 12.1991020894901627   F   F   F
  8.7964083579606509 24.5266499999999965 12.1991020894901645   F   F   F
  5.4977552237254059 28.7641499999999972 13.2986531342352450   F   F   F
  7.6968573132155687 33.0016499999999979 13.2986531342352450   F   F   F
  6.5973062684704882 28.0013999999999967 12.1991020894901627   F   F   F
  8.7964083579606509 23.7638999999999996 12.1991020894901645   F   F   F
  5.4977552237254059 19.5263999999999989 13.2986531342352450   F   F   F
  7.6968573132155687 32.2388999999999939 13.2986531342352450   F   F   F
  6.5973062684704882 22.8485999999999976 12.1991020894901627   F   F   F
  8.7964083579606509 27.0860999999999947 12.1991020894901645   F   F   F
  5.4977552237254059 31.3235999999999919 13.2986531342352450   F   F   F
  7.6968573132155687 18.6111000000000004 13.2986531342352450   F   F   F
  8.7964083579606509 30.5608499999999950 14.3982041789803255   T   T   T
  6.5973062684704864 26.3233499999999978 14.3982041789803255   T   T   T
  7.6968573132155678 22.0858500000000006 15.4977552237254095   T   T   T
  5.4977552237254050 17.8483499999999999 15.4977552237254077   T   T   T
  8.7964083579606509 20.2891499999999994 14.3982041789803255   T   T   T
  6.5973062684704864 24.5266499999999965 14.3982041789803255   T   T   T
  7.6968573132155678 28.7641499999999972 15.4977552237254095   T   T   T
  5.4977552237254050 33.0016499999999979 15.4977552237254077   T   T   T
  8.7964083579606509 28.0013999999999967 14.3982041789803255   T   T   T
  6.5973062684704864 23.7638999999999996 14.3982041789803255   T   T   T
  7.6968573132155678 19.5263999999999989 15.4977552237254095   T   T   T
  5.4977552237254050 32.2388999999999939 15.4977552237254077   T   T   T
  8.7964083579606509 22.8485999999999976 14.3982041789803255   T   T   T
  6.5973062684704864 27.0860999999999947 14.3982041789803255   T   T   T
  7.6968573132155678 31.3235999999999919 15.4977552237254095   T   T   T
  5.4977552237254050 18.6111000000000004 15.4977552237254077   T   T   T
  6.5973062684704864 30.5608499999999950 16.5973062684704900   T   T   T
  8.7964083579606491 26.3233499999999978 16.5973062684704900   T   T   T
  5.4977552237254050 22.0858500000000006 17.6968573132155740   T   T   T
  7.6968573132155678 17.8483499999999999 17.6968573132155740   T   T   T
  6.5973062684704864 20.2891499999999994 16.5973062684704900   T   T   T
  8.7964083579606491 24.5266499999999965 16.5973062684704900   T   T   T
  5.4977552237254050 28.7641499999999972 17.6968573132155740   T   T   T
  7.6968573132155678 33.0016499999999979 17.6968573132155740   T   T   T
  6.5973062684704864 28.0013999999999967 16.5973062684704900   T   T   T
  8.7964083579606491 23.7638999999999996 16.5973062684704900   T   T   T
  5.4977552237254050 19.5263999999999989 17.6968573132155740   T   T   T
  7.6968573132155678 32.2388999999999939 17.6968573132155740   T   T   T
  6.5973062684704864 22.8485999999999976 16.5973062684704900   T   T   T
  8.7964083579606491 27.0860999999999947 16.5973062684704900   T   T   T
  5.4977552237254050 31.3235999999999919 17.6968573132155740   T   T   T
  7.6968573132155678 18.6111000000000004 17.6968573132155740   T   T   T
  4.3982041789803255 47.5108499999999907 10.0000000000000000   F   F   F
  6.5973062684704882 43.2733499999999935 10.0000000000000000   F   F   F
  7.6968573132155687 39.0358499999999964 11.0995510447450823   F   F   F
  5.4977552237254059 34.7983499999999992 11.0995510447450805   F   F   F