Mo Se Mo Se Mo Se Mo Se Mo Se Mo Se Mo Se Mo Se Mo Se Mo Se Mo Se Mo Se Mo Se Mo Se Mo Se Mo Se Mo Se Mo Se Mo Se Mo Se Mo Se Mo Se Mo Se Mo Se Mo Se Mo Se Mo Se Mo Se Mo Se Mo Se Mo Se Mo Se Mo Se Mo Se Mo Se Mo Se Mo Se Mo Se Mo Se Mo Se Mo Se Mo Se Mo Se Mo Se Mo Se Mo Se Mo Se Mo Se Mo Se Mo Se Mo Se Mo Se Mo Se Mo Se Mo Se Mo Se Mo Se Mo Se Mo Se Mo Se Mo Se Mo Se Mo Se Mo Se
 1.0000000000000000
    13.1560000000000006    0.0000000000000000    0.0000000000000000
     0.0000000000000000   51.9799999999999969    0.0000000000000000
     0.0000000000000000    0.0000000000000000   30.4439776945057403
 Mo  Se  Mo  Se  Mo  Se  Mo  Se  Mo  Se  Mo  Se  Mo  Se  Mo  Se  Mo  Se  Mo  Se  Mo  Se  Mo  Se  Mo  Se  Mo  Se  Mo  Se  Mo  Se  Mo  Se  Mo  Se  Mo  Se  Mo  Se  Mo  Se  Mo  Se  Mo  Se  Mo  Se  Mo  Se  Mo  Se  Mo  Se  Mo  Se  Mo  Se  Mo  Se  Mo  Se  Mo  Se  Mo  Se  Mo  Se  Mo  Se  Mo  Se  Mo  Se  Mo  Se  Mo  Se  Mo  Se  Mo  Se  Mo  Se  Mo  Se  Mo  Se  Mo  Se  Mo  Se  Mo  Se  Mo  Se  Mo  Se  Mo  Se  Mo  Se  Mo  Se  Mo  Se  Mo  Se  Mo  Se  Mo  Se  Mo  Se  Mo  Se  Mo  Se  Mo  Se  Mo  Se  Mo  Se  Mo  Se  Mo  Se 
   1   2   1   2   1   2   1   2   1   2   1   2   1   2   1   2   1   2   1   2   1   2   1   2   1   2   1   2   1   2   1   2   1   2   1   2   1   2   1   2   1   2   1   2   1   2   1   2   1   2   1   2   1   2   1   2   1   2   1   2   1   2   1   2   1   2   1   2   1   2   1   2   1   2   1   2   1   2   1   2   1   2   1   2   1   2   1   2   1   2   1   2   1   2   1   2   1   2   1   2   1   2   1   2   1   2   1   2   1   2   1   2   1   2   1   2   1   2   1   2   1   2   1   2   1   2   1   2
Selective dynamics
Cartesian
  0.0000000000000000  6.4975000000000014 10.0000000000000000   F   F   F
  1.6445000000000001  8.0569000000000006 10.9494525176823423   F   F   F
  0.0000000000000003  4.9381000000000004 11.8989050353646810   F   F   F
  1.6445000000000001  6.4975000000000014 12.8483575530470198   F   F   F
  0.0000000000000003  8.0569000000000006 13.7978100707293585   F   F   F
  1.6445000000000001  4.9381000000000004 14.7472625884117008   F   F   F
  0.0000000000000000  6.4975000000000014 15.6967151060940395   T   T   T
  1.6445000000000005  8.0569000000000006 16.6461676237763783   T   T   T
  0.0000000000000007  4.9381000000000004 17.5956201414587206   T   T   T
  1.6445000000000001  6.4975000000000014 18.5450726591410593   T   T   T
  0.0000000000000000  8.0569000000000006 19.4945251768234016   T   T   T
  1.6445000000000001  4.9381000000000004 20.4439776945057403   T   T   T
  0.0000000000000000 19.4924999999999997 10.0000000000000000   F   F   F
  1.6445000000000001 21.0518999999999998 10.9494525176823423   F   F   F
  0.0000000000000003 17.9330999999999996 11.8989050353646810   F   F   F
  1.6445000000000001 19.4924999999999997 12.8483575530470198   F   F   F
  0.0000000000000003 21.0518999999999998 13.7978100707293585   F   F   F
  1.6445000000000001 17.9330999999999996 14.7472625884117008   F   F   F
  0.0000000000000000 19.4924999999999997 15.6967151060940395   T   T   T
  1.6445000000000005 21.0518999999999998 16.6461676237763783   T   T   T
  0.0000000000000007 17.9330999999999996 17.5956201414587206   T   T   T
  1.6445000000000001 19.4924999999999997 18.5450726591410593   T   T   T
  0.0000000000000000 21.0518999999999998 19.4945251768234016   T   T   T
  1.6445000000000001 17.9330999999999996 20.4439776945057403   T   T   T
  0.0000000000000000 32.4874999999999972 10.0000000000000000   F   F   F
  1.6445000000000001 34.0469000000000008 10.9494525176823423   F   F   F
  0.0000000000000003 30.9281000000000006 11.8989050353646810   F   F   F
  1.6445000000000001 32.4874999999999972 12.8483575530470198   F   F   F
  0.0000000000000003 34.0469000000000008 13.7978100707293585   F   F   F
  1.6445000000000001 30.9281000000000006 14.7472625884117008   F   F   F
  0.0000000000000000 32.4874999999999972 15.6967151060940395   T   T   T
  1.6445000000000005 34.0469000000000008 16.6461676237763783   T   T   T
  0.0000000000000007 30.9281000000000006 17.5956201414587206   T   T   T
  1.6445000000000001 32.4874999999999972 18.5450726591410593   T   T   T
  0.0000000000000000 34.0469000000000008 19.4945251768234016   T   T   T
  1.6445000000000001 30.9281000000000006 20.4439776945057403   T   T   T
  0.0000000000000000 45.4825000000000017 10.0000000000000000   F   F   F
  1.6445000000000001 47.0418999999999983 10.9494525176823423   F   F   F
  0.0000000000000003 43.9230999999999980 11.8989050353646810   F   F   F
  1.6445000000000001 45.4825000000000017 12.8483575530470198   F   F   F
  0.0000000000000003 47.0418999999999983 13.7978100707293585   F   F   F
  1.6445000000000001 43.9230999999999980 14.7472625884117008   F   F   F
  0.0000000000000000 45.4825000000000017 15.6967151060940395   T   T   T
  1.6445000000000005 47.0418999999999983 16.6461676237763783   T   T   T
  0.0000000000000007 43.9230999999999980 17.5956201414587206   T   T   T
  1.6445000000000001 45.4825000000000017 18.5450726591410593   T   T   T
  0.0000000000000000 47.0418999999999983 19.4945251768234016   T   T   T
  1.6445000000000001 43.9230999999999980 20.4439776945057403   T   T   T
  3.2890000000000001  6.4975000000000014 10.0000000000000000   F   F   F
  4.9335000000000004  8.0569000000000006 10.9494525176823423   F   F   F
  3.2890000000000006  4.9381000000000004 11.8989050353646810   F   F   F
  4.9335000000000004  6.4975000000000014 12.8483575530470198   F   F   F
  3.2890000000000006  8.0569000000000006 13.7978100707293585   F   F   F
  4.9335000000000004  4.9381000000000004 14.7472625884117008   F   F   F
  3.2890000000000001  6.4975000000000014 15.6967151060940395   T   T   T
  4.9335000000000004  8.0569000000000006 16.6461676237763783   T   T   T
  3.2890000000000010  4.9381000000000004 17.5956201414587206   T   T   T
  4.9335000000000004  6.4975000000000014 18.5450726591410593   T   T   T
  3.2890000000000001  8.0569000000000006 19.4945251768234016   T   T   T
  4.9335000000000004  4.9381000000000004 20.4439776945057403   T   T   T
  3.2890000000000001 19.4924999999999997 10.0000000000000000   F   F   F
  4.9335000000000004 21.0518999999999998 10.9494525176823423   F   F   F
  3.2890000000000006 17.9330999999999996 11.8989050353646810   F   F   F
  4.9335000000000004 19.4924999999999997 12.8483575530470198   F   F   F
  3.2890000000000006 21.0518999999999998 13.7978100707293585   F   F   F
  4.9335000000000004 17.9330999999999996 14.7472625884117008   F   F   F
  3.2890000000000001 19.4924999999999997 15.6967151060940395   T   T   T
  4.9335000000000004 21.0518999999999998 16.6461676237763783   T   T   T
  3.2890000000000010 17.9330999999999996 17.5956201414587206   T   T   T
  4.9335000000000004 19.4924999999999997 18.5450726591410593   T   T   T
  3.2890000000000001 21.0518999999999998 19.4945251768234016   T   T   T
  4.9335000000000004 17.9330999999999996 20.4439776945057403   T   T   T
  3.2890000000000001 32.4874999999999972 10.0000000000000000   F   F   F
  4.9335000000000004 34.0469000000000008 10.9494525176823423   F   F   F
  3.2890000000000006 30.9281000000000006 11.8989050353646810   F   F   F
  4.9335000000000004 32.4874999999999972 12.8483575530470198   F   F   F
  3.2890000000000006 34.0469000000000008 13.7978100707293585   F   F   F
  4.9335000000000004 30.9281000000000006 14.7472625884117008   F   F   F
  3.2890000000000001 32.4874999999999972 15.6967151060940395   T   T   T
  4.9335000000000004 34.0469000000000008 16.6461676237763783   T   T   T
  3.2890000000000010 30.9281000000000006 17.5956201414587206   T   T   T
  4.9335000000000004 32.4874999999999972 18.5450726591410593   T   T   T
  3.2890000000000001 34.0469000000000008 19.4945251768234016   T   T   T
  4.9335000000000004 30.9281000000000006 20.4439776945057403   T   T   T
  3.2890000000000001 45.4825000000000017 10.0000000000000000   F   F   F
  4.9335000000000004 47.0418999999999983 10.9494525176823423   F   F   F
  3.2890000000000006 43.9230999999999980 11.8989050353646810   F   F   F
  4.9335000000000004 45.4825000000000017 12.8483575530470198   F   F   F
  3.2890000000000006 47.0418999999999983 13.7978100707293585   F   F   F
  4.9335000000000004 43.9230999999999980 14.7472625884117008   F   F   F
  3.2890000000000001 45.4825000000000017 15.6967151060940395   T   T   T
  4.9335000000000004 47.0418999999999983 16.6461676237763783   T   T   T
  3.2890000000000010 43.9230999999999980 17.5956201414587206   T   T   T
  4.9335000000000004 45.4825000000000017 18.5450726591410593   T   T   T
  3.2890000000000001 47.0418999999999983 19.4945251768234016   T   T   T
  4.9335000000000004 43.9230999999999980 20.4439776945057403   T   T   T
  6.5780000000000003  6.4975000000000014 10.0000000000000000   F   F   F
  8.2225000000000001  8.0569000000000006 10.9494525176823423   F   F   F
  6.5780000000000003  4.9381000000000004 11.8989050353646810   F   F   F
  8.2225000000000001  6.4975000000000014 12.8483575530470198   F   F   F
  6.5780000000000003  8.0569000000000006 13.7978100707293585   F   F   F
  8.2225000000000001  4.9381000000000004 14.7472625884117008   F   F   F
  6.5780000000000003  6.4975000000000014 15.6967151060940395   T   T   T
  8.2225000000000001  8.0569000000000006 16.6461676237763783   T   T   T
  6.5780000000000012  4.9381000000000004 17.5956201414587206   T   T   T
  8.2225000000000001  6.4975000000000014 18.5450726591410593   T   T   T
  6.5780000000000003  8.0569000000000006 19.4945251768234016   T   T   T
  8.2225000000000001  4.9381000000000004 20.4439776945057403   T   T   T
  6.5780000000000003 19.4924999999999997 10.0000000000000000   F   F   F
  8.2225000000000001 21.0518999999999998 10.9494525176823423   F   F   F
  6.5780000000000003 17.9330999999999996 11.8989050353646810   F   F   F
  8.2225000000000001 19.4924999999999997 12.8483575530470198   F   F   F
  6.5780000000000003 21.0518999999999998 13.7978100707293585   F   F   F
  8.2225000000000001 17.9330999999999996 14.7472625884117008   F   F   F
  6.5780000000000003 19.4924999999999997 15.6967151060940395   T   T   T
  8.2225000000000001 21.0518999999999998 16.6461676237763783   T   T   T
  6.5780000000000012 17.9330999999999996 17.5956201414587206   T   T   T
  8.2225000000000001 19.4924999999999997 18.5450726591410593   T   T   T
  6.5780000000000003 21.0518999999999998 19.4945251768234016   T   T   T
  8.2225000000000001 17.9330999999999996 20.4439776945057403   T   T   T
  6.5780000000000003 32.4874999999999972 10.0000000000000000   F   F   F
  8.2225000000000001 34.0469000000000008 10.9494525176823423   F   F   F
  6.5780000000000003 30.9281000000000006 11.8989050353646810   F   F   F
  8.2225000000000001 32.4874999999999972 12.8483575530470198   F   F   F
  6.5780000000000003 34.0469000000000008 13.7978100707293585   F   F   F
  8.2225000000000001 30.9281000000000006 14.7472625884117008   F   F   F
  6.5780000000000003 32.4874999999999972 15.6967151060940395   T   T   T
  8.2225000000000001 34.0469000000000008 16.6461676237763783   T   T   T
  6.5780000000000012 30.9281000000000006 17.5956201414587206   T   T   T
  8.2225000000000001 32.4874999999999972 18.5450726591410593   T   T   T
  6.5780000000000003 34.0469000000000008 19.4945251768234016   T   T   T
  8.2225000000000001 30.9281000000000006 20.4439776945057403   T   T   T
  6.5780000000000003 45.4825000000000017 10.0000000000000000   F   F   F
  8.2225000000000001 47.0418999999999983 10.9494525176823423   F   F   F
  6.5780000000000003 43.9230999999999980 11.8989050353646810   F   F   F
  8.2225000000000001 45.4825000000000017 12.8483575530470198   F   F   F
  6.5780000000000003 47.0418999999999983 13.7978100707293585   F   F   F
  8.2225000000000001 43.9230999999999980 14.7472625884117008   F   F   F
  6.5780000000000003 45.4825000000000017 15.6967151060940395   T   T   T
  8.2225000000000001 47.0418999999999983 16.6461676237763783   T   T   T
  6.5780000000000012 43.9230999999999980 17.5956201414587206   T   T   T
  8.2225000000000001 45.4825000000000017 18.5450726591410593   T   T   T
  6.5780000000000003 47.0418999999999983 19.4945251768234016   T   T   T
  8.2225000000000001 43.9230999999999980 20.4439776945057403   T   T   T
  9.8670000000000009  6.4975000000000014 10.0000000000000000   F   F   F
 11.5115000000000016  8.0569000000000006 10.9494525176823423   F   F   F
  9.8670000000000009  4.9381000000000004 11.8989050353646810   F   F   F
 11.5115000000000016  6.4975000000000014 12.8483575530470198   F   F   F
  9.8670000000000009  8.0569000000000006 13.7978100707293585   F   F   F
 11.5115000000000016  4.9381000000000004 14.7472625884117008   F   F   F
  9.8670000000000009  6.4975000000000014 15.6967151060940395   T   T   T
 11.5115000000000016  8.0569000000000006 16.6461676237763783   T   T   T
  9.8670000000000009  4.9381000000000004 17.5956201414587206   T   T   T
 11.5115000000000016  6.4975000000000014 18.5450726591410593   T   T   T
  9.8670000000000009  8.0569000000000006 19.4945251768234016   T   T   T
 11.5115000000000016  4.9381000000000004 20.4439776945057403   T   T   T
  9.8670000000000009 19.4924999999999997 10.0000000000000000   F   F   F
 11.5115000000000016 21.0518999999999998 10.9494525176823423   F   F   F
  9.8670000000000009 17.9330999999999996 11.8989050353646810   F   F   F
 11.5115000000000016 19.4924999999999997 12.8483575530470198   F   F   F
  9.8670000000000009 21.0518999999999998 13.7978100707293585   F   F   F
 11.5115000000000016 17.9330999999999996 14.7472625884117008   F   F   F
  9.8670000000000009 19.4924999999999997 15.6967151060940395   T   T   T
 11.5115000000000016 21.0518999999999998 16.6461676237763783   T   T   T
  9.8670000000000009 17.9330999999999996 17.5956201414587206   T   T   T
 11.5115000000000016 19.4924999999999997 18.5450726591410593   T   T   T
  9.8670000000000009 21.0518999999999998 19.4945251768234016   T   T   T
 11.5115000000000016 17.9330999999999996 20.4439776945057403   T   T   T
  9.8670000000000009 32.4874999999999972 10.0000000000000000   F   F   F
 11.5115000000000016 34.0469000000000008 10.9494525176823423   F   F   F
  9.8670000000000009 30.9281000000000006 11.8989050353646810   F   F   F
 11.5115000000000016 32.4874999999999972 12.8483575530470198   F   F   F
  9.8670000000000009 34.0469000000000008 13.7978100707293585   F   F   F
 11.5115000000000016 30.9281000000000006 14.7472625884117008   F   F   F
  9.8670000000000009 32.4874999999999972 15.6967151060940395   T   T   T
 11.5115000000000016 34.0469000000000008 16.6461676237763783   T   T   T
  9.8670000000000009 30.9281000000000006 17.5956201414587206   T   T   T
 11.5115000000000016 32.4874999999999972 18.5450726591410593   T   T   T
  9.8670000000000009 34.0469000000000008 19.4945251768234016   T   T   T
 11.5115000000000016 30.9281000000000006 20.4439776945057403   T   T   T
  9.8670000000000009 45.4825000000000017 10.0000000000000000   F   F   F
 11.5115000000000016 47.0418999999999983 10.9494525176823423   F   F   F
  9.8670000000000009 43.9230999999999980 11.8989050353646810   F   F   F
 11.5115000000000016 45.4825000000000017 12.8483575530470198   F   F   F
  9.8670000000000009 47.0418999999999983 13.7978100707293585   F   F   F
 11.5115000000000016 43.9230999999999980 14.7472625884117008   F   F   F
  9.8670000000000009 45.4825000000000017 15.6967151060940395   T   T   T
 11.5115000000000016 47.0418999999999983 16.6461676237763783   T   T   T
  9.8670000000000009 43.9230999999999980 17.5956201414587206   T   T   T
 11.5115000000000016 45.4825000000000017 18.5450726591410593   T   T   T
  9.8670000000000009 47.0418999999999983 19.4945251768234016   T   T   T
 11.5115000000000016 43.9230999999999980 20.4439776945057403   T   T   T
