Mo S  Mo S  Mo S  Mo S  Mo S  Mo S  Mo S  Mo S  Mo S  Mo S  Mo S  Mo S  Mo S  Mo S  Mo S  Mo S  Mo S  Mo S  Mo S  Mo S  Mo S  Mo S  Mo S  Mo S  Mo S  Mo S  Mo S  Mo S  Mo S  Mo S  Mo S  Mo S  Mo S  Mo S  Mo S  Mo S  Mo S  Mo S  Mo S  Mo S  Mo S  Mo S  Mo S  Mo S  Mo S  Mo S  Mo S  Mo S  Mo S  Mo S  Mo S  Mo S  Mo S  Mo S  Mo S  Mo S  Mo S  Mo S  Mo S  Mo S  Mo S  Mo S  Mo S  Mo S 
 1.0000000000000000
    21.8931222076706078    0.0000000000000000    0.0000000000000000
     0.0000000000000000   49.1799999999999997    0.0000000000000000
     0.0000000000000000    0.0000000000000000   24.7400000000000020
 Mo  S   Mo  S   Mo  S   Mo  S   Mo  S   Mo  S   Mo  S   Mo  S   Mo  S   Mo  S   Mo  S   Mo  S   Mo  S   Mo  S   Mo  S   Mo  S   Mo  S   Mo  S   Mo  S   Mo  S   Mo  S   Mo  S   Mo  S   Mo  S   Mo  S   Mo  S   Mo  S   Mo  S   Mo  S   Mo  S   Mo  S   Mo  S   Mo  S   Mo  S   Mo  S   Mo  S   Mo  S   Mo  S   Mo  S   Mo  S   Mo  S   Mo  S   Mo  S   Mo  S   Mo  S   Mo  S   Mo  S   Mo  S   Mo  S   Mo  S   Mo  S   Mo  S   Mo  S   Mo  S   Mo  S   Mo  S   Mo  S   Mo  S   Mo  S   Mo  S   Mo  S   Mo  S   Mo  S   Mo  S  
   1   2   1   2   1   2   1   2   1   2   1   2   1   2   1   2   1   2   1   2   1   2   1   2   1   2   1   2   1   2   1   2   1   2   1   2   1   2   1   2   1   2   1   2   1   2   1   2   1   2   1   2   1   2   1   2   1   2   1   2   1   2   1   2   1   2   1   2   1   2   1   2   1   2   1   2   1   2   1   2   1   2   1   2   1   2   1   2   1   2   1   2   1   2   1   2   1   2   1   2   1   2   1   2   1   2   1   2   1   2   1   2   1   2   1   2   1   2   1   2   1   2   1   2   1   2   1   2
Selective dynamics
Cartesian
  5.4732805519176511  6.1475000000000000 10.0000000000000000   F   F   F
  1.8244268506392165  4.6721000000000004 10.0000000000000000   F   F   F
  3.6488537012784339  7.6228999999999996 10.0000000000000000   F   F   F
  2.7366402759588255  6.1475000000000000 11.5800000000000001   F   F   F
  4.5610671265980427  4.6721000000000004 11.5800000000000001   F   F   F
  0.9122134253196066  7.6228999999999996 11.5800000000000001   F   F   F
  0.0000000000000000  6.1475000000000000 13.1600000000000001   T   T   T
  1.8244268506392169  4.6721000000000004 13.1600000000000001   T   T   T
  3.6488537012784352  7.6228999999999996 13.1600000000000001   T   T   T
  2.7366402759588260  6.1475000000000000 14.7400000000000020   T   T   T
  4.5610671265980427  4.6721000000000004 14.7400000000000020   T   T   T
  0.9122134253196078  7.6228999999999996 14.7400000000000020   T   T   T
  5.4732805519176511 18.4424999999999990 10.0000000000000000   F   F   F
  1.8244268506392165 16.9671000000000021 10.0000000000000000   F   F   F
  3.6488537012784339 19.9178999999999995 10.0000000000000000   F   F   F
  2.7366402759588255 18.4424999999999990 11.5800000000000001   F   F   F
  4.5610671265980427 16.9671000000000021 11.5800000000000001   F   F   F
  0.9122134253196066 19.9178999999999995 11.5800000000000001   F   F   F
  0.0000000000000000 18.4424999999999990 13.1600000000000001   T   T   T
  1.8244268506392169 16.9671000000000021 13.1600000000000001   T   T   T
  3.6488537012784352 19.9178999999999995 13.1600000000000001   T   T   T
  2.7366402759588260 18.4424999999999990 14.7400000000000020   T   T   T
  4.5610671265980427 16.9671000000000021 14.7400000000000020   T   T   T
  0.9122134253196078 19.9178999999999995 14.7400000000000020   T   T   T
  5.4732805519176511 30.7375000000000007 10.0000000000000000   F   F   F
  1.8244268506392165 29.2621000000000002 10.0000000000000000   F   F   F
  3.6488537012784339 32.2128999999999976 10.0000000000000000   F   F   F
  2.7366402759588255 30.7375000000000007 11.5800000000000001   F   F   F
  4.5610671265980427 29.2621000000000002 11.5800000000000001   F   F   F
  0.9122134253196066 32.2128999999999976 11.5800000000000001   F   F   F
  0.0000000000000000 30.7375000000000007 13.1600000000000001   T   T   T
  1.8244268506392169 29.2621000000000002 13.1600000000000001   T   T   T
  3.6488537012784352 32.2128999999999976 13.1600000000000001   T   T   T
  2.7366402759588260 30.7375000000000007 14.7400000000000020   T   T   T
  4.5610671265980427 29.2621000000000002 14.7400000000000020   T   T   T
  0.9122134253196078 32.2128999999999976 14.7400000000000020   T   T   T
  5.4732805519176511 43.0324999999999989 10.0000000000000000   F   F   F
  1.8244268506392165 41.5570999999999984 10.0000000000000000   F   F   F
  3.6488537012784339 44.5078999999999994 10.0000000000000000   F   F   F
  2.7366402759588255 43.0324999999999989 11.5800000000000001   F   F   F
  4.5610671265980427 41.5570999999999984 11.5800000000000001   F   F   F
  0.9122134253196066 44.5078999999999994 11.5800000000000001   F   F   F
  0.0000000000000000 43.0324999999999989 13.1600000000000001   T   T   T
  1.8244268506392169 41.5570999999999984 13.1600000000000001   T   T   T
  3.6488537012784352 44.5078999999999994 13.1600000000000001   T   T   T
  2.7366402759588260 43.0324999999999989 14.7400000000000020   T   T   T
  4.5610671265980427 41.5570999999999984 14.7400000000000020   T   T   T
  0.9122134253196078 44.5078999999999994 14.7400000000000020   T   T   T
 10.9465611038353039  6.1475000000000000 10.0000000000000000   F   F   F
  7.2977074025568687  4.6721000000000004 10.0000000000000000   F   F   F
  9.1221342531960854  7.6228999999999996 10.0000000000000000   F   F   F
  8.2099208278764770  6.1475000000000000 11.5800000000000001   F   F   F
 10.0343476785156938  4.6721000000000004 11.5800000000000001   F   F   F
  6.3854939772372585  7.6228999999999996 11.5800000000000001   F   F   F
  5.4732805519176519  6.1475000000000000 13.1600000000000001   T   T   T
  7.2977074025568687  4.6721000000000004 13.1600000000000001   T   T   T
  9.1221342531960872  7.6228999999999996 13.1600000000000001   T   T   T
  8.2099208278764770  6.1475000000000000 14.7400000000000020   T   T   T
 10.0343476785156938  4.6721000000000004 14.7400000000000020   T   T   T
  6.3854939772372594  7.6228999999999996 14.7400000000000020   T   T   T
 10.9465611038353039 18.4424999999999990 10.0000000000000000   F   F   F
  7.2977074025568687 16.9671000000000021 10.0000000000000000   F   F   F
  9.1221342531960854 19.9178999999999995 10.0000000000000000   F   F   F
  8.2099208278764770 18.4424999999999990 11.5800000000000001   F   F   F
 10.0343476785156938 16.9671000000000021 11.5800000000000001   F   F   F
  6.3854939772372585 19.9178999999999995 11.5800000000000001   F   F   F
  5.4732805519176519 18.4424999999999990 13.1600000000000001   T   T   T
  7.2977074025568687 16.9671000000000021 13.1600000000000001   T   T   T
  9.1221342531960872 19.9178999999999995 13.1600000000000001   T   T   T
  8.2099208278764770 18.4424999999999990 14.7400000000000020   T   T   T
 10.0343476785156938 16.9671000000000021 14.7400000000000020   T   T   T
  6.3854939772372594 19.9178999999999995 14.7400000000000020   T   T   T
 10.9465611038353039 30.7375000000000007 10.0000000000000000   F   F   F
  7.2977074025568687 29.2621000000000002 10.0000000000000000   F   F   F
  9.1221342531960854 32.2128999999999976 10.0000000000000000   F   F   F
  8.2099208278764770 30.7375000000000007 11.5800000000000001   F   F   F
 10.0343476785156938 29.2621000000000002 11.5800000000000001   F   F   F
  6.3854939772372585 32.2128999999999976 11.5800000000000001   F   F   F
  5.4732805519176519 30.7375000000000007 13.1600000000000001   T   T   T
  7.2977074025568687 29.2621000000000002 13.1600000000000001   T   T   T
  9.1221342531960872 32.2128999999999976 13.1600000000000001   T   T   T
  8.2099208278764770 30.7375000000000007 14.7400000000000020   T   T   T
 10.0343476785156938 29.2621000000000002 14.7400000000000020   T   T   T
  6.3854939772372594 32.2128999999999976 14.7400000000000020   T   T   T
 10.9465611038353039 43.0324999999999989 10.0000000000000000   F   F   F
  7.2977074025568687 41.5570999999999984 10.0000000000000000   F   F   F
  9.1221342531960854 44.5078999999999994 10.0000000000000000   F   F   F
  8.2099208278764770 43.0324999999999989 11.5800000000000001   F   F   F
 10.0343476785156938 41.5570999999999984 11.5800000000000001   F   F   F
  6.3854939772372585 44.5078999999999994 11.5800000000000001   F   F   F
  5.4732805519176519 43.0324999999999989 13.1600000000000001   T   T   T
  7.2977074025568687 41.5570999999999984 13.1600000000000001   T   T   T
  9.1221342531960872 44.5078999999999994 13.1600000000000001   T   T   T
  8.2099208278764770 43.0324999999999989 14.7400000000000020   T   T   T
 10.0343476785156938 41.5570999999999984 14.7400000000000020   T   T   T
  6.3854939772372594 44.5078999999999994 14.7400000000000020   T   T   T
 16.4198416557529541  6.1475000000000000 10.0000000000000000   F   F   F
 12.7709879544745206  4.6721000000000004 10.0000000000000000   F   F   F
 14.5954148051137373  7.6228999999999996 10.0000000000000000   F   F   F
 13.6832013797941290  6.1475000000000000 11.5800000000000001   F   F   F
 15.5076282304333475  4.6721000000000004 11.5800000000000001   F   F   F
 11.8587745291549105  7.6228999999999996 11.5800000000000001   F   F   F
 10.9465611038353039  6.1475000000000000 13.1600000000000001   T   T   T
 12.7709879544745206  4.6721000000000004 13.1600000000000001   T   T   T
 14.5954148051137391  7.6228999999999996 13.1600000000000001   T   T   T
 13.6832013797941308  6.1475000000000000 14.7400000000000020   T   T   T
 15.5076282304333475  4.6721000000000004 14.7400000000000020   T   T   T
 11.8587745291549123  7.6228999999999996 14.7400000000000020   T   T   T
 16.4198416557529541 18.4424999999999990 10.0000000000000000   F   F   F
 12.7709879544745206 16.9671000000000021 10.0000000000000000   F   F   F
 14.5954148051137373 19.9178999999999995 10.0000000000000000   F   F   F
 13.6832013797941290 18.4424999999999990 11.5800000000000001   F   F   F
 15.5076282304333475 16.9671000000000021 11.5800000000000001   F   F   F
 11.8587745291549105 19.9178999999999995 11.5800000000000001   F   F   F
 10.9465611038353039 18.4424999999999990 13.1600000000000001   T   T   T
 12.7709879544745206 16.9671000000000021 13.1600000000000001   T   T   T
 14.5954148051137391 19.9178999999999995 13.1600000000000001   T   T   T
 13.6832013797941308 18.4424999999999990 14.7400000000000020   T   T   T
 15.5076282304333475 16.9671000000000021 14.7400000000000020   T   T   T
 11.8587745291549123 19.9178999999999995 14.7400000000000020   T   T   T
 16.4198416557529541 30.7375000000000007 10.0000000000000000   F   F   F
 12.7709879544745206 29.2621000000000002 10.0000000000000000   F   F   F
 14.5954148051137373 32.2128999999999976 10.0000000000000000   F   F   F
 13.6832013797941290 30.7375000000000007 11.5800000000000001   F   F   F
 15.5076282304333475 29.2621000000000002 11.5800000000000001   F   F   F
 11.8587745291549105 32.2128999999999976 11.5800000000000001   F   F   F
 10.9465611038353039 30.7375000000000007 13.1600000000000001   T   T   T
 12.7709879544745206 29.2621000000000002 13.1600000000000001   T   T   T
 14.5954148051137391 32.2128999999999976 13.1600000000000001   T   T   T
 13.6832013797941308 30.7375000000000007 14.7400000000000020   T   T   T
 15.5076282304333475 29.2621000000000002 14.7400000000000020   T   T   T
 11.8587745291549123 32.2128999999999976 14.7400000000000020   T   T   T
 16.4198416557529541 43.0324999999999989 10.0000000000000000   F   F   F
 12.7709879544745206 41.5570999999999984 10.0000000000000000   F   F   F
 14.5954148051137373 44.5078999999999994 10.0000000000000000   F   F   F
 13.6832013797941290 43.0324999999999989 11.5800000000000001   F   F   F
 15.5076282304333475 41.5570999999999984 11.5800000000000001   F   F   F
 11.8587745291549105 44.5078999999999994 11.5800000000000001   F   F   F
 10.9465611038353039 43.0324999999999989 13.1600000000000001   T   T   T
 12.7709879544745206 41.5570999999999984 13.1600000000000001   T   T   T
 14.5954148051137391 44.5078999999999994 13.1600000000000001   T   T   T
 13.6832013797941308 43.0324999999999989 14.7400000000000020   T   T   T
 15.5076282304333475 41.5570999999999984 14.7400000000000020   T   T   T
 11.8587745291549123 44.5078999999999994 14.7400000000000020   T   T   T
 21.8931222076706042  6.1475000000000000 10.0000000000000000   F   F   F
 18.2442685063921708  4.6721000000000004 10.0000000000000000   F   F   F
 20.0686953570313875  7.6228999999999996 10.0000000000000000   F   F   F
 19.1564819317117809  6.1475000000000000 11.5800000000000001   F   F   F
 20.9809087823509977  4.6721000000000004 11.5800000000000001   F   F   F
 17.3320550810725607  7.6228999999999996 11.5800000000000001   F   F   F
 16.4198416557529541  6.1475000000000000 13.1600000000000001   T   T   T
 18.2442685063921708  4.6721000000000004 13.1600000000000001   T   T   T
 20.0686953570313875  7.6228999999999996 13.1600000000000001   T   T   T
 19.1564819317117809  6.1475000000000000 14.7400000000000020   T   T   T
 20.9809087823509977  4.6721000000000004 14.7400000000000020   T   T   T
 17.3320550810725607  7.6228999999999996 14.7400000000000020   T   T   T
 21.8931222076706042 18.4424999999999990 10.0000000000000000   F   F   F
 18.2442685063921708 16.9671000000000021 10.0000000000000000   F   F   F
 20.0686953570313875 19.9178999999999995 10.0000000000000000   F   F   F
 19.1564819317117809 18.4424999999999990 11.5800000000000001   F   F   F
 20.9809087823509977 16.9671000000000021 11.5800000000000001   F   F   F
 17.3320550810725607 19.9178999999999995 11.5800000000000001   F   F   F
 16.4198416557529541 18.4424999999999990 13.1600000000000001   T   T   T
 18.2442685063921708 16.9671000000000021 13.1600000000000001   T   T   T
 20.0686953570313875 19.9178999999999995 13.1600000000000001   T   T   T
 19.1564819317117809 18.4424999999999990 14.7400000000000020   T   T   T
 20.9809087823509977 16.9671000000000021 14.7400000000000020   T   T   T
 17.3320550810725607 19.9178999999999995 14.7400000000000020   T   T   T
 21.8931222076706042 30.7375000000000007 10.0000000000000000   F   F   F
 18.2442685063921708 29.2621000000000002 10.0000000000000000   F   F   F
 20.0686953570313875 32.2128999999999976 10.0000000000000000   F   F   F
 19.1564819317117809 30.7375000000000007 11.5800000000000001   F   F   F
 20.9809087823509977 29.2621000000000002 11.5800000000000001   F   F   F
 17.3320550810725607 32.2128999999999976 11.5800000000000001   F   F   F
 16.4198416557529541 30.7375000000000007 13.1600000000000001   T   T   T
 18.2442685063921708 29.2621000000000002 13.1600000000000001   T   T   T
 20.0686953570313875 32.2128999999999976 13.1600000000000001   T   T   T
 19.1564819317117809 30.7375000000000007 14.7400000000000020   T   T   T
 20.9809087823509977 29.2621000000000002 14.7400000000000020   T   T   T
 17.3320550810725607 32.2128999999999976 14.7400000000000020   T   T   T
 21.8931222076706042 43.0324999999999989 10.0000000000000000   F   F   F
 18.2442685063921708 41.5570999999999984 10.0000000000000000   F   F   F
 20.0686953570313875 44.5078999999999994 10.0000000000000000   F   F   F
 19.1564819317117809 43.0324999999999989 11.5800000000000001   F   F   F
 20.9809087823509977 41.5570999999999984 11.5800000000000001   F   F   F
 17.3320550810725607 44.5078999999999994 11.5800000000000001   F   F   F
 16.4198416557529541 43.0324999999999989 13.1600000000000001   T   T   T
 18.2442685063921708 41.5570999999999984 13.1600000000000001   T   T   T
 20.0686953570313875 44.5078999999999994 13.1600000000000001   T   T   T
 19.1564819317117809 43.0324999999999989 14.7400000000000020   T   T   T
 20.9809087823509977 41.5570999999999984 14.7400000000000020   T   T   T
 17.3320550810725607 44.5078999999999994 14.7400000000000020   T   T   T
