Mo C  Mo C  Mo C  Mo C  Mo C  Mo C  Mo C  Mo C  Mo C  Mo C  Mo C  Mo C  Mo C  Mo C  Mo C  Mo C 
 1.0000000000000000
    14.0674716989230149    0.0000000000000000    0.0000000000000000
     7.7004927621992874   13.9574478762887146    0.0000000000000000
     0.0000000000000000    0.0000000000000000   26.9029401228992171
 Mo  C   Mo  C   Mo  C   Mo  C   Mo  C   Mo  C   Mo  C   Mo  C   Mo  C   Mo  C   Mo  C   Mo  C   Mo  C   Mo  C   Mo  C   Mo  C  
   4   2   4   2   4   2   4   2   4   2   4   2   4   2   4   2   4   2   4   2   4   2   4   2   4   2   4   2   4   2   4   2
Selective dynamics
Cartesian
  0.4878526566024939  0.0470805375479220  8.4845751165732963   F   F   F
  6.5458831928590122  5.1752737671977682  8.7874345644316101   F   F   F
  3.0290152681282585  3.8174616479638881  7.9999999999999991   F   F   F
  4.0047205813332489  1.4048926567818030  9.2720096810049064   F   F   F
  6.0711742541865963  1.4409551413587820  8.9691502331465962   F   F   F
  2.5543063294558430  2.9032143466875748  9.8171566871498683   F   F   F
  7.5215885060640026  5.2694348422936130 11.5131695951564126   F   F   F
  2.6956368117593676  3.4189041337991024 11.8160290430147263   F   F   F
  6.2125047364901222  2.0610920145652214 11.0285944785831163   F   F   F
  4.0047205813332489  6.6272469615274945 12.3006041595880227   F   F   F
  6.0711742541865954  6.6633094461044733 11.9977447117297089   F   F   F
  5.7377957978177063  1.1468447132889081 12.8457511657329846   F   F   F
  3.6713421249643559  3.5130652088949468 14.5417640737395253   T   T   T
  5.8791262801212314  1.6625345004004357 14.8446235215978426   T   T   T
  2.3622583553904763  0.3047223811665549 14.0571889571662290   T   T   T
  7.1882100496951100  4.8708773281288273 15.3291986381711354   T   T   T
  9.2546637225484591  4.9069398127058061 15.0263391903128287   T   T   T
  5.7377957978177054  6.3691990180346005 15.8743456443160973   T   T   T
  6.8548315933262218  1.7566955754962794 17.5703585523226451   T   T   T
  5.8791262801212305  6.8848888051461268 17.8732180001809553   T   T   T
  9.3959942048519842  5.5270766859122462 17.0857834357493417   T   T   T
  3.3379636685954668  3.1145076947301615 18.3577931167542516   T   T   T
  5.4044173414488119  3.1505701793071408 18.0549336688959379   T   T   T
  8.9212852661795701  4.6128293846359325 18.9029401228992171   T   T   T
  4.3380990377021380  7.0258044756922793  8.4845751165732963   F   F   F
 10.3961295739586568 12.1539977053421246  8.7874345644316101   F   F   F
  6.8792616492279022 10.7961855861082459  7.9999999999999991   F   F   F
  7.8549669624328926  8.3836165949261598  9.2720096810049064   F   F   F
  9.9214206352862391  8.4196790795031387  8.9691502331465962   F   F   F
  6.4045527105554871  9.8819382848319322  9.8171566871498683   F   F   F
 11.3718348871636472 12.2481587804379703 11.5131695951564126   F   F   F
  6.5458831928590113 10.3976280719434602 11.8160290430147263   F   F   F
 10.0627511175897659  9.0398159527095778 11.0285944785831163   F   F   F
  7.8549669624328926 13.6059708996718527 12.3006041595880227   F   F   F
  9.9214206352862391 13.6420333842488297 11.9977447117297089   F   F   F
  9.5880421789173500  8.1255686514332659 12.8457511657329846   F   F   F
  7.5215885060639991 10.4917891470393041 14.5417640737395253   T   T   T
  9.7293726612208751  8.6412584385447921 14.8446235215978426   T   T   T
  6.2125047364901196  7.2834463193109125 14.0571889571662290   T   T   T
 11.0384564307947528 11.8496012662731847 15.3291986381711354   T   T   T
 13.1049101036481019 11.8856637508501635 15.0263391903128287   T   T   T
  9.5880421789173482 13.3479229561789587 15.8743456443160973   T   T   T
 10.7050779744258655  8.7354195136406361 17.5703585523226451   T   T   T
  9.7293726612208751 13.8636127432904850 17.8732180001809553   T   T   T
 13.2462405859516288 12.5058006240566044 17.0857834357493417   T   T   T
  7.1882100496951100 10.0932316328745184 18.3577931167542516   T   T   T
  9.2546637225484556 10.1292941174514972 18.0549336688959379   T   T   T
 12.7715316472792146 11.5915533227802889 18.9029401228992171   T   T   T
  7.5215885060640018  0.0470805375479220  8.4845751165732963   F   F   F
 13.5796190423205196  5.1752737671977682  8.7874345644316101   F   F   F
 10.0627511175897659  3.8174616479638881  7.9999999999999991   F   F   F
 11.0384564307947564  1.4048926567818030  9.2720096810049064   F   F   F
 13.1049101036481037  1.4409551413587820  8.9691502331465962   F   F   F
  9.5880421789173500  2.9032143466875748  9.8171566871498683   F   F   F
 14.5553243555255101  5.2694348422936130 11.5131695951564126   F   F   F
  9.7293726612208751  3.4189041337991024 11.8160290430147263   F   F   F
 13.2462405859516288  2.0610920145652214 11.0285944785831163   F   F   F
 11.0384564307947564  6.6272469615274945 12.3006041595880227   F   F   F
 13.1049101036481019  6.6633094461044733 11.9977447117297089   F   F   F
 12.7715316472792146  1.1468447132889081 12.8457511657329846   F   F   F
 10.7050779744258637  3.5130652088949468 14.5417640737395253   T   T   T
 12.9128621295827379  1.6625345004004357 14.8446235215978426   T   T   T
  9.3959942048519842  0.3047223811665549 14.0571889571662290   T   T   T
 14.2219458991566174  4.8708773281288273 15.3291986381711354   T   T   T
 16.2883995720099648  4.9069398127058061 15.0263391903128287   T   T   T
 12.7715316472792129  6.3691990180346005 15.8743456443160973   T   T   T
 13.8885674427877284  1.7566955754962794 17.5703585523226451   T   T   T
 12.9128621295827379  6.8848888051461268 17.8732180001809553   T   T   T
 16.4297300543134916  5.5270766859122462 17.0857834357493417   T   T   T
 10.3716995180569747  3.1145076947301615 18.3577931167542516   T   T   T
 12.4381531909103202  3.1505701793071408 18.0549336688959379   T   T   T
 15.9550211156410775  4.6128293846359325 18.9029401228992171   T   T   T
 11.3718348871636454  7.0258044756922793  8.4845751165732963   F   F   F
 17.4298654234201642 12.1539977053421246  8.7874345644316101   F   F   F
 13.9129974986894105 10.7961855861082459  7.9999999999999991   F   F   F
 14.8887028118944009  8.3836165949261598  9.2720096810049064   F   F   F
 16.9551564847477465  8.4196790795031387  8.9691502331465962   F   F   F
 13.4382885600169946  9.8819382848319322  9.8171566871498683   F   F   F
 18.4055707366251546 12.2481587804379703 11.5131695951564126   F   F   F
 13.5796190423205196 10.3976280719434602 11.8160290430147263   F   F   F
 17.0964869670512734  9.0398159527095778 11.0285944785831163   F   F   F
 14.8887028118944009 13.6059708996718527 12.3006041595880227   F   F   F
 16.9551564847477465 13.6420333842488297 11.9977447117297089   F   F   F
 16.6217780283788592  8.1255686514332659 12.8457511657329846   F   F   F
 14.5553243555255083 10.4917891470393041 14.5417640737395253   T   T   T
 16.7631085106823825  8.6412584385447921 14.8446235215978426   T   T   T
 13.2462405859516288  7.2834463193109125 14.0571889571662290   T   T   T
 18.0721922802562602 11.8496012662731847 15.3291986381711354   T   T   T
 20.1386459531096094 11.8856637508501635 15.0263391903128287   T   T   T
 16.6217780283788557 13.3479229561789587 15.8743456443160973   T   T   T
 17.7388138238873729  8.7354195136406361 17.5703585523226451   T   T   T
 16.7631085106823825 13.8636127432904850 17.8732180001809553   T   T   T
 20.2799764354131362 12.5058006240566044 17.0857834357493417   T   T   T
 14.2219458991566192 10.0932316328745184 18.3577931167542516   T   T   T
 16.2883995720099648 10.1292941174514972 18.0549336688959379   T   T   T
 19.8052674967407221 11.5915533227802889 18.9029401228992171   T   T   T
