Mo Se Mo Se Mo Se Mo Se Mo Se Mo Se Mo Se Mo Se Mo Se Mo Se Mo Se Mo Se Mo Se Mo Se Mo Se Mo Se
 1.0000000000000000
     6.5780000000000003    0.0000000000000000    0.0000000000000000
     0.0000000000000000   25.9899999999999984    0.0000000000000000
     0.0000000000000000    0.0000000000000000   26.4439776945057368
 Mo  Se  Mo  Se  Mo  Se  Mo  Se  Mo  Se  Mo  Se  Mo  Se  Mo  Se  Mo  Se  Mo  Se  Mo  Se  Mo  Se  Mo  Se  Mo  Se  Mo  Se  Mo  Se 
   1   2   1   2   1   2   1   2   1   2   1   2   1   2   1   1   1   2   1   2   1   2   1   2   1   2   1   2   1   2   1   2
Selective dynamics
Cartesian
  0.0000000000000000  6.4975000000000014  8.0000000000000000   F   F   F
  1.6445000000000001  8.0569000000000006  8.9494525176823405   F   F   F
  0.0000000000000003  4.9381000000000004  9.8989050353646793   F   F   F
  1.6445000000000001  6.4975000000000014 10.8483575530470198   F   F   F
  0.0000000000000003  8.0569000000000006 11.7978100707293585   F   F   F
  1.6445000000000001  4.9381000000000004 12.7472625884116990   F   F   F
  0.0000000000000000  6.4975000000000014 13.6967151060940378   T   T   T
  1.6445000000000005  8.0569000000000006 14.6461676237763783   T   T   T
  0.0000000000000007  4.9381000000000004 15.5956201414587188   T   T   T
  1.6445000000000001  6.4975000000000014 16.5450726591410557   T   T   T
  0.0000000000000000  8.0569000000000006 17.4945251768233980   T   T   T
  1.6445000000000001  4.9381000000000004 18.4439776945057368   T   T   T
  0.0000000000000000 19.4924999999999997  8.0000000000000000   F   F   F
  1.6445000000000001 21.0518999999999998  8.9494525176823405   F   F   F
  0.0000000000000003 17.9330999999999996  9.8989050353646793   F   F   F
  1.6445000000000001 19.4924999999999997 10.8483575530470198   F   F   F
  0.0000000000000003 21.0518999999999998 11.7978100707293585   F   F   F
  1.6445000000000001 17.9330999999999996 12.7472625884116990   F   F   F
  0.0000000000000000 19.4924999999999997 13.6967151060940378   T   T   T
  1.6445000000000005 21.0518999999999998 14.6461676237763783   T   T   T
  0.0000000000000007 17.9330999999999996 15.5956201414587188   T   T   T
  1.6445000000000001 19.4924999999999997 16.5450726591410557   T   T   T
  0.0000000000000000 21.0518999999999998 17.4945251768233980   T   T   T
  3.2890000000000001  6.4975000000000014  8.0000000000000000   F   F   F
  4.9335000000000004  8.0569000000000006  8.9494525176823405   F   F   F
  3.2890000000000006  4.9381000000000004  9.8989050353646793   F   F   F
  4.9335000000000004  6.4975000000000014 10.8483575530470198   F   F   F
  3.2890000000000006  8.0569000000000006 11.7978100707293585   F   F   F
  4.9335000000000004  4.9381000000000004 12.7472625884116990   F   F   F
  3.2890000000000001  6.4975000000000014 13.6967151060940378   T   T   T
  4.9335000000000004  8.0569000000000006 14.6461676237763783   T   T   T
  3.2890000000000010  4.9381000000000004 15.5956201414587188   T   T   T
  4.9335000000000004  6.4975000000000014 16.5450726591410557   T   T   T
  3.2890000000000001  8.0569000000000006 17.4945251768233980   T   T   T
  4.9335000000000004  4.9381000000000004 18.4439776945057368   T   T   T
  3.2890000000000001 19.4924999999999997  8.0000000000000000   F   F   F
  4.9335000000000004 21.0518999999999998  8.9494525176823405   F   F   F
  3.2890000000000006 17.9330999999999996  9.8989050353646793   F   F   F
  4.9335000000000004 19.4924999999999997 10.8483575530470198   F   F   F
  3.2890000000000006 21.0518999999999998 11.7978100707293585   F   F   F
  4.9335000000000004 17.9330999999999996 12.7472625884116990   F   F   F
  3.2890000000000001 19.4924999999999997 13.6967151060940378   T   T   T
  4.9335000000000004 21.0518999999999998 14.6461676237763783   T   T   T
  3.2890000000000010 17.9330999999999996 15.5956201414587188   T   T   T
  4.9335000000000004 19.4924999999999997 16.5450726591410557   T   T   T
  3.2890000000000001 21.0518999999999998 17.4945251768233980   T   T   T
  4.9335000000000004 17.9330999999999996 18.4439776945057368   T   T   T
